*SPEF "ieee 1481-1999"
*DESIGN "sar_logic"
*DATE "03:58:26 Friday June 12, 2026"
*VENDOR "The OpenROAD Project"
*PROGRAM "OpenROAD"
*VERSION "341650e72dad0dc8571822ff8c5d9c5e365327f7"
*DESIGN_FLOW "NAME_SCOPE LOCAL" "PIN_CAP NONE"
*DIVIDER /
*DELIMITER :
*BUS_DELIMITER []
*T_UNIT 1 NS
*C_UNIT 1 PF
*R_UNIT 1 OHM
*L_UNIT 1 HENRY

*NAME_MAP
*1 BN[0]
*2 BN[10]
*3 BN[11]
*4 BN[1]
*5 BN[2]
*6 BN[3]
*7 BN[4]
*8 BN[5]
*9 BN[6]
*10 BN[7]
*11 BN[8]
*12 BN[9]
*13 B[0]
*14 B[10]
*15 B[11]
*16 B[1]
*17 B[2]
*18 B[3]
*19 B[4]
*20 B[5]
*21 B[6]
*22 B[7]
*23 B[8]
*24 B[9]
*25 D[0]
*26 D[10]
*27 D[11]
*28 D[1]
*29 D[2]
*30 D[3]
*31 D[4]
*32 D[5]
*33 D[6]
*34 D[7]
*35 D[8]
*36 D[9]
*37 Om
*38 Op
*41 clk
*42 rst
*43 sign
*44 _000_
*45 _001_
*46 _002_
*47 _003_
*48 _004_
*49 _005_
*50 _006_
*51 _007_
*52 _008_
*53 _009_
*54 _010_
*55 _011_
*56 _012_
*57 _013_
*58 _014_
*59 _015_
*60 _016_
*61 _017_
*62 _018_
*63 _019_
*64 _020_
*65 _021_
*66 _022_
*67 _023_
*68 _024_
*69 _025_
*70 _026_
*71 _027_
*72 _028_
*73 _029_
*74 _030_
*75 _031_
*76 _032_
*77 _033_
*78 _034_
*79 _035_
*80 _036_
*81 _037_
*82 _038_
*83 _039_
*84 _040_
*85 _041_
*86 _042_
*87 _043_
*88 _044_
*89 _045_
*90 _046_
*91 _047_
*92 _048_
*93 _049_
*94 _050_
*95 _051_
*96 _052_
*97 _053_
*98 _054_
*99 _055_
*100 _056_
*101 _057_
*102 _058_
*103 _059_
*104 _060_
*105 _061_
*106 _062_
*107 _063_
*108 _064_
*109 _065_
*110 _066_
*111 _067_
*112 clknet_0_clk
*113 clknet_2_0__leaf_clk
*114 clknet_2_1__leaf_clk
*115 clknet_2_2__leaf_clk
*116 clknet_2_3__leaf_clk
*117 dbit\[0\]
*118 dbit\[1\]
*119 dbit\[2\]
*120 dbit\[3\]
*121 net1
*122 net10
*123 net100
*124 net101
*125 net102
*126 net103
*127 net104
*128 net105
*129 net106
*130 net107
*131 net108
*132 net109
*133 net11
*134 net110
*135 net111
*136 net112
*137 net113
*138 net114
*139 net115
*140 net116
*141 net117
*142 net118
*143 net119
*144 net12
*145 net120
*146 net121
*147 net122
*148 net123
*149 net124
*150 net125
*151 net126
*152 net127
*153 net128
*154 net129
*155 net13
*156 net130
*157 net14
*158 net15
*159 net16
*160 net17
*161 net18
*162 net19
*163 net2
*164 net20
*165 net21
*166 net22
*167 net23
*168 net24
*169 net25
*170 net26
*171 net27
*172 net28
*173 net29
*174 net3
*175 net30
*176 net31
*177 net32
*178 net33
*179 net34
*180 net35
*181 net36
*182 net37
*183 net38
*184 net39
*185 net4
*186 net40
*187 net41
*188 net42
*189 net43
*190 net44
*191 net45
*192 net46
*193 net47
*194 net48
*195 net49
*196 net5
*197 net50
*198 net51
*199 net52
*200 net53
*201 net54
*202 net55
*203 net56
*204 net57
*205 net58
*206 net59
*207 net6
*208 net60
*209 net61
*210 net62
*211 net63
*212 net64
*213 net65
*214 net66
*215 net67
*216 net68
*217 net69
*218 net7
*219 net70
*220 net71
*221 net72
*222 net73
*223 net74
*224 net75
*225 net76
*226 net77
*227 net78
*228 net79
*229 net8
*230 net80
*231 net81
*232 net82
*233 net83
*234 net84
*235 net85
*236 net86
*237 net87
*238 net88
*239 net89
*240 net9
*241 net90
*242 net91
*243 net92
*244 net93
*245 net94
*246 net95
*247 net96
*248 net97
*249 net98
*250 net99
*251 BN\[0\]\$_SDFFE_PP1P_
*252 BN\[0\]\$_SDFFE_PP1P__43
*253 BN\[10\]\$_SDFFE_PP1P_
*254 BN\[10\]\$_SDFFE_PP1P__66
*255 BN\[11\]\$_SDFFE_PP1P_
*256 BN\[11\]\$_SDFFE_PP1P__64
*257 BN\[1\]\$_SDFFE_PP1P_
*258 BN\[1\]\$_SDFFE_PP1P__62
*259 BN\[2\]\$_SDFFE_PP1P_
*260 BN\[2\]\$_SDFFE_PP1P__60
*261 BN\[3\]\$_SDFFE_PP1P_
*262 BN\[3\]\$_SDFFE_PP1P__58
*263 BN\[4\]\$_SDFFE_PP1P_
*264 BN\[4\]\$_SDFFE_PP1P__56
*265 BN\[5\]\$_SDFFE_PP1P_
*266 BN\[5\]\$_SDFFE_PP1P__54
*267 BN\[6\]\$_SDFFE_PP1P_
*268 BN\[6\]\$_SDFFE_PP1P__52
*269 BN\[7\]\$_SDFFE_PP1P_
*270 BN\[7\]\$_SDFFE_PP1P__50
*271 BN\[8\]\$_SDFFE_PP1P_
*272 BN\[8\]\$_SDFFE_PP1P__48
*273 BN\[9\]\$_SDFFE_PP1P_
*274 BN\[9\]\$_SDFFE_PP1P__46
*275 B\[0\]\$_SDFFE_PP1P_
*276 B\[0\]\$_SDFFE_PP1P__44
*277 B\[10\]\$_SDFFE_PP1P_
*278 B\[10\]\$_SDFFE_PP1P__42
*279 B\[11\]\$_SDFFE_PP1P_
*280 B\[11\]\$_SDFFE_PP1P__40
*281 B\[1\]\$_SDFFE_PP1P_
*282 B\[1\]\$_SDFFE_PP1P__65
*283 B\[2\]\$_SDFFE_PP1P_
*284 B\[2\]\$_SDFFE_PP1P__61
*285 B\[3\]\$_SDFFE_PP1P_
*286 B\[3\]\$_SDFFE_PP1P__57
*287 B\[4\]\$_SDFFE_PP1P_
*288 B\[4\]\$_SDFFE_PP1P__53
*289 B\[5\]\$_SDFFE_PP1P_
*290 B\[5\]\$_SDFFE_PP1P__49
*291 B\[6\]\$_SDFFE_PP1P_
*292 B\[6\]\$_SDFFE_PP1P__45
*293 B\[7\]\$_SDFFE_PP1P_
*294 B\[7\]\$_SDFFE_PP1P__41
*295 B\[8\]\$_SDFFE_PP1P_
*296 B\[8\]\$_SDFFE_PP1P__63
*297 B\[9\]\$_SDFFE_PP1P_
*298 B\[9\]\$_SDFFE_PP1P__55
*299 FILLER_0_0
*300 FILLER_0_102
*301 FILLER_0_109
*302 FILLER_0_116
*303 FILLER_0_123
*304 FILLER_0_130
*305 FILLER_0_137
*306 FILLER_0_14
*307 FILLER_0_144
*308 FILLER_0_21
*309 FILLER_0_23
*310 FILLER_0_59
*311 FILLER_0_69
*312 FILLER_0_7
*313 FILLER_0_75
*314 FILLER_0_88
*315 FILLER_0_95
*316 FILLER_10_147
*317 FILLER_10_4
*318 FILLER_10_53
*319 FILLER_10_70
*320 FILLER_10_92
*321 FILLER_11_0
*322 FILLER_11_145
*323 FILLER_11_147
*324 FILLER_11_96
*325 FILLER_11_98
*326 FILLER_12_101
*327 FILLER_12_118
*328 FILLER_12_12
*329 FILLER_12_120
*330 FILLER_12_87
*331 FILLER_13_147
*332 FILLER_13_34
*333 FILLER_13_4
*334 FILLER_13_6
*335 FILLER_13_66
*336 FILLER_14_0
*337 FILLER_14_137
*338 FILLER_14_139
*339 FILLER_14_2
*340 FILLER_14_74
*341 FILLER_14_78
*342 FILLER_15_0
*343 FILLER_15_11
*344 FILLER_15_129
*345 FILLER_15_136
*346 FILLER_15_17
*347 FILLER_15_24
*348 FILLER_15_7
*349 FILLER_16_0
*350 FILLER_16_122
*351 FILLER_16_129
*352 FILLER_16_136
*353 FILLER_16_14
*354 FILLER_16_143
*355 FILLER_16_147
*356 FILLER_16_21
*357 FILLER_16_28
*358 FILLER_16_32
*359 FILLER_16_7
*360 FILLER_16_88
*361 FILLER_17_0
*362 FILLER_17_117
*363 FILLER_17_123
*364 FILLER_17_130
*365 FILLER_17_137
*366 FILLER_17_14
*367 FILLER_17_144
*368 FILLER_17_21
*369 FILLER_17_28
*370 FILLER_17_35
*371 FILLER_17_42
*372 FILLER_17_49
*373 FILLER_17_53
*374 FILLER_17_7
*375 FILLER_17_70
*376 FILLER_17_77
*377 FILLER_17_84
*378 FILLER_1_100
*379 FILLER_1_11
*380 FILLER_1_118
*381 FILLER_1_125
*382 FILLER_1_132
*383 FILLER_1_139
*384 FILLER_1_18
*385 FILLER_1_22
*386 FILLER_1_4
*387 FILLER_1_93
*388 FILLER_2_132
*389 FILLER_2_30
*390 FILLER_2_39
*391 FILLER_2_67
*392 FILLER_3_103
*393 FILLER_3_105
*394 FILLER_3_133
*395 FILLER_3_135
*396 FILLER_3_4
*397 FILLER_3_46
*398 FILLER_4_0
*399 FILLER_4_119
*400 FILLER_4_147
*401 FILLER_5_104
*402 FILLER_5_106
*403 FILLER_5_116
*404 FILLER_5_4
*405 FILLER_5_54
*406 FILLER_5_56
*407 FILLER_5_6
*408 FILLER_6_108
*409 FILLER_6_146
*410 FILLER_6_4
*411 FILLER_7_0
*412 FILLER_7_127
*413 FILLER_7_43
*414 FILLER_7_71
*415 FILLER_8_147
*416 FILLER_8_28
*417 FILLER_8_4
*418 FILLER_8_46
*419 FILLER_8_52
*420 FILLER_8_59
*421 FILLER_8_6
*422 FILLER_8_99
*423 FILLER_9_104
*424 FILLER_9_106
*425 FILLER_9_146
*426 FILLER_9_4
*427 FILLER_9_73
*428 _096_
*429 _097_
*430 _098_
*431 _099_
*432 _100_
*433 _101_
*434 _102_
*435 _103_
*436 _104_
*437 _105_
*438 _106_
*439 _107_
*440 _108_
*441 _109_
*442 _110_
*443 _111_
*444 _112_
*445 _113_
*446 _114_
*447 _115_
*448 _116_
*449 _117_
*450 _118_
*451 _119_
*452 _120_
*453 _121_
*454 _122_
*455 _123_
*456 _124_
*457 _125_
*458 _126_
*459 _127_
*460 _128_
*461 _129_
*462 _130_
*463 _131_
*464 _132_
*465 _133_
*466 _134_
*467 _135_
*468 _136_
*469 _137_
*470 _138_
*471 _139_
*472 _140_
*473 _141_
*474 _142_
*475 _143_
*476 _144_
*477 _145_
*478 _146_
*479 _147_
*480 _148_
*481 _149_
*482 _150_
*483 _151_
*484 _152_
*485 _153_
*486 _154_
*487 _155_
*488 _156_
*489 _157_
*490 _158_
*491 _159_
*492 _160_
*493 _161_
*494 _162_
*495 _163_
*496 _164_
*497 _165_
*498 _166_
*499 _167_
*500 _168_
*501 _169_
*502 _170_
*503 _171_
*504 _172_
*505 _173_
*506 _174_
*507 _175_
*508 _204_
*509 clkbuf_0_clk
*510 clkbuf_2_0__f_clk
*511 clkbuf_2_1__f_clk
*512 clkbuf_2_2__f_clk
*513 clkbuf_2_3__f_clk
*514 clkload0
*515 clkload1
*516 clkload2
*517 dbit\[0\]\$_SDFFE_PP1P_
*518 dbit\[0\]\$_SDFFE_PP1P__47
*519 dbit\[1\]\$_SDFFE_PP1P_
*520 dbit\[1\]\$_SDFFE_PP1P__67
*521 dbit\[2\]\$_SDFFE_PP0P_
*522 dbit\[2\]\$_SDFFE_PP0P__51
*523 dbit\[3\]\$_SDFFE_PP1P_
*524 dbit\[3\]\$_SDFFE_PP1P__59
*525 fanout1
*526 fanout10
*527 fanout11
*528 fanout12
*529 fanout13
*530 fanout14
*531 fanout15
*532 fanout16
*533 fanout2
*534 fanout3
*535 fanout4
*536 fanout5
*537 fanout6
*538 fanout7
*539 fanout8
*540 fanout9
*541 hold1
*542 hold10
*543 hold11
*544 hold12
*545 hold13
*546 hold14
*547 hold15
*548 hold16
*549 hold17
*550 hold18
*551 hold19
*552 hold2
*553 hold20
*554 hold21
*555 hold22
*556 hold23
*557 hold24
*558 hold25
*559 hold26
*560 hold27
*561 hold28
*562 hold29
*563 hold3
*564 hold30
*565 hold31
*566 hold32
*567 hold33
*568 hold34
*569 hold35
*570 hold36
*571 hold37
*572 hold38
*573 hold39
*574 hold4
*575 hold40
*576 hold41
*577 hold42
*578 hold43
*579 hold44
*580 hold45
*581 hold46
*582 hold47
*583 hold5
*584 hold6
*585 hold7
*586 hold8
*587 hold9
*588 input1
*589 input2
*590 output10
*591 output11
*592 output12
*593 output13
*594 output14
*595 output15
*596 output16
*597 output17
*598 output18
*599 output19
*600 output20
*601 output21
*602 output22
*603 output23
*604 output24
*605 output25
*606 output26
*607 output27
*608 output28
*609 output29
*610 output3
*611 output30
*612 output31
*613 output32
*614 output33
*615 output34
*616 output35
*617 output36
*618 output37
*619 output38
*620 output39
*621 output4
*622 output5
*623 output6
*624 output7
*625 output8
*626 output9

*PORTS
BN[0] O
BN[10] O
BN[11] O
BN[1] O
BN[2] O
BN[3] O
BN[4] O
BN[5] O
BN[6] O
BN[7] O
BN[8] O
BN[9] O
B[0] O
B[10] O
B[11] O
B[1] O
B[2] O
B[3] O
B[4] O
B[5] O
B[6] O
B[7] O
B[8] O
B[9] O
D[0] O
D[10] O
D[11] O
D[1] O
D[2] O
D[3] O
D[4] O
D[5] O
D[6] O
D[7] O
D[8] O
D[9] O
Om I
Op I
clk I
rst I
sign O

*D_NET *1 0.00174908
*CONN
*P BN[0] O
*I *610:X O *D sg13g2_buf_1
*CAP
1 BN[0] 0.000655915
2 *610:X 0.000655915
3 BN[0] *593:A 0
4 BN[0] *11:14 0.000437251
*RES
1 *610:X BN[0] 48.0134 
*END

*D_NET *2 0.00347929
*CONN
*P BN[10] O
*I *621:X O *D sg13g2_buf_1
*CAP
1 BN[10] 0.00066875
2 *621:X 0.000635206
3 *2:8 0.00130396
4 BN[10] B[10] 0
5 BN[10] D[11] 0.000823471
6 *2:8 *453:A1 0
7 *2:8 *621:A 4.79124e-05
8 *2:8 *27:8 0
*RES
1 *621:X *2:8 47.2409 
2 *2:8 BN[10] 27.761 
*END

*D_NET *3 0.00225437
*CONN
*P BN[11] O
*I *622:X O *D sg13g2_buf_1
*CAP
1 BN[11] 0.000462143
2 *622:X 0
3 *3:12 0.00101098
4 *3:6 0.000548832
5 BN[11] D[0] 0
6 BN[11] sign 0
7 BN[11] *491:A0 2.14736e-05
8 BN[11] *587:A 0.000210948
9 BN[11] *181:8 0
*RES
1 *622:X *3:6 40 
2 *3:6 *3:12 46.8083 
3 *3:12 BN[11] 4.16635 
*END

*D_NET *4 0.000642597
*CONN
*P BN[1] O
*I *623:X O *D sg13g2_buf_1
*CAP
1 BN[1] 0.000321298
2 *623:X 0.000321298
3 BN[1] D[2] 0
*RES
1 *623:X BN[1] 43.1621 
*END

*D_NET *5 0.00272805
*CONN
*P BN[2] O
*I *624:X O *D sg13g2_buf_1
*CAP
1 BN[2] 0.000907248
2 *624:X 0.000907248
3 BN[2] D[3] 0
4 BN[2] *490:A0 7.52158e-05
5 BN[2] *543:A 0
6 BN[2] *604:A 0
7 BN[2] *613:A 0.00037181
8 BN[2] *22:12 0
9 BN[2] *167:10 0.000159511
10 BN[2] *167:34 0
11 BN[2] *180:44 0.000307012
*RES
1 *624:X BN[2] 49.6768 
*END

*D_NET *6 0.00248463
*CONN
*P BN[3] O
*I *625:X O *D sg13g2_buf_1
*CAP
1 BN[3] 0.00105694
2 *625:X 0.00105694
3 BN[3] D[4] 0
4 BN[3] *625:A 0
5 BN[3] *35:10 0.00037075
6 BN[3] *43:14 0
*RES
1 *625:X BN[3] 49.6562 
*END

*D_NET *7 0.00259418
*CONN
*P BN[4] O
*I *626:X O *D sg13g2_buf_1
*CAP
1 BN[4] 0.000836027
2 *626:X 0.000836027
3 BN[4] B[1] 0.000274737
4 BN[4] B[4] 0.000631992
5 BN[4] D[5] 0
6 BN[4] D[9] 1.54008e-05
7 BN[4] *169:12 0
*RES
1 *626:X BN[4] 49.0949 
*END

*D_NET *8 0.00211902
*CONN
*P BN[5] O
*I *590:X O *D sg13g2_buf_1
*CAP
1 BN[5] 0.00105951
2 *590:X 0.00105951
3 BN[5] D[6] 0
4 BN[5] *590:A 0
5 BN[5] *616:A 0
*RES
1 *590:X BN[5] 31.7883 
*END

*D_NET *9 0.000656844
*CONN
*P BN[6] O
*I *591:X O *D sg13g2_buf_1
*CAP
1 BN[6] 0.000328422
2 *591:X 0.000328422
3 BN[6] D[7] 0
4 BN[6] *604:A 0
5 BN[6] *22:12 0
6 BN[6] *167:34 0
*RES
1 *591:X BN[6] 43.9295 
*END

*D_NET *10 0.00305997
*CONN
*P BN[7] O
*I *592:X O *D sg13g2_buf_1
*CAP
1 BN[7] 0.000266099
2 *592:X 0.000753072
3 *10:8 0.00101917
4 BN[7] sign 0
5 BN[7] *41:13 0
6 BN[7] *42:13 0.000554491
7 *10:8 *587:A 8.02269e-05
8 *10:8 *592:A 0
9 *10:8 *625:A 0.0001447
10 *10:8 *17:8 0
11 *10:8 *35:10 0.000242213
*RES
1 *592:X *10:8 46.592 
2 *10:8 BN[7] 3.42475 
*END

*D_NET *11 0.00317507
*CONN
*P BN[8] O
*I *593:X O *D sg13g2_buf_1
*CAP
1 BN[8] 0.000279906
2 *593:X 0.000749164
3 *11:14 0.00102907
4 BN[8] B[8] 0
5 BN[8] D[9] 0
6 *11:14 B[4] 0.000209824
7 *11:14 D[9] 0.00046985
8 *11:14 *593:A 0
9 *11:14 *23:12 0
10 BN[0] *11:14 0.000437251
*RES
1 *593:X *11:14 48.9713 
2 *11:14 BN[8] 2.1733 
*END

*D_NET *12 0.000949278
*CONN
*P BN[9] O
*I *594:X O *D sg13g2_buf_1
*CAP
1 BN[9] 0.000474639
2 *594:X 0.000474639
3 BN[9] B[9] 0
4 BN[9] D[10] 0
*RES
1 *594:X BN[9] 43.6977 
*END

*D_NET *13 0.00179958
*CONN
*P B[0] O
*I *595:X O *D sg13g2_buf_1
*CAP
1 B[0] 0.000355551
2 *595:X 0.000544242
3 *13:10 0.000899792
4 B[0] D[1] 0
*RES
1 *595:X *13:10 46.5714 
2 *13:10 B[0] 24.2745 
*END

*D_NET *14 0.00200125
*CONN
*P B[10] O
*I *596:X O *D sg13g2_buf_1
*CAP
1 B[10] 0.00100063
2 *596:X 0.00100063
3 B[10] *291:RESET_B 0
4 B[10] *596:A 0
5 BN[10] B[10] 0
*RES
1 *596:X B[10] 31.5411 
*END

*D_NET *15 0.00148952
*CONN
*P B[11] O
*I *597:X O *D sg13g2_buf_1
*CAP
1 B[11] 0.000672209
2 *597:X 0.000672209
3 B[11] B[3] 0
4 B[11] D[4] 0
5 B[11] *42:9 0
6 B[11] *195:14 0.000145105
7 B[11] *200:14 0
*RES
1 *597:X B[11] 46.659 
*END

*D_NET *16 0.00168259
*CONN
*P B[1] O
*I *598:X O *D sg13g2_buf_1
*CAP
1 B[1] 0.000615127
2 *598:X 0.000615127
3 B[1] D[2] 0.000177597
4 B[1] D[5] 0
5 B[1] *612:A 0
6 BN[4] B[1] 0.000274737
*RES
1 *598:X B[1] 46.3963 
*END

*D_NET *17 0.00383311
*CONN
*P B[2] O
*I *599:X O *D sg13g2_buf_1
*CAP
1 B[2] 0.000308347
2 *599:X 0.00102635
3 *17:8 0.0013347
4 B[2] D[3] 0
5 *17:8 *587:A 8.02269e-05
6 *17:8 *604:A 0
7 *17:8 *22:12 0
8 *17:8 *35:10 0.00108349
9 *17:8 *172:6 0
10 *17:8 *172:10 0
11 *17:8 *178:141 0
12 *17:8 *186:10 0
13 *10:8 *17:8 0
*RES
1 *599:X *17:8 30.6193 
2 *17:8 B[2] 22.9303 
*END

*D_NET *18 0.00235072
*CONN
*P B[3] O
*I *600:X O *D sg13g2_buf_1
*CAP
1 B[3] 0.00095833
2 *600:X 0.00095833
3 B[3] D[4] 0
4 B[3] *620:A 8.01116e-05
5 B[3] *625:A 0.000353953
6 B[3] *181:35 0
7 B[3] *195:14 0
8 B[3] *200:14 0
9 B[11] B[3] 0
*RES
1 *600:X B[3] 49.5532 
*END

*D_NET *19 0.00280828
*CONN
*P B[4] O
*I *601:X O *D sg13g2_buf_1
*CAP
1 B[4] 0.000823642
2 *601:X 0.000111937
3 *19:10 0.000935579
4 B[4] D[5] 0
5 B[4] D[9] 0
6 *19:10 D[9] 4.77699e-05
7 *19:10 *23:12 4.75425e-05
8 BN[4] B[4] 0.000631992
9 *11:14 B[4] 0.000209824
*RES
1 *601:X *19:10 41.1639 
2 *19:10 B[4] 49.0125 
*END

*D_NET *20 0.0021129
*CONN
*P B[5] O
*I *602:X O *D sg13g2_buf_1
*CAP
1 B[5] 0.00104872
2 *602:X 0.00104872
3 B[5] D[6] 0
4 B[5] *277:RESET_B 1.54556e-05
5 B[5] *602:A 0
*RES
1 *602:X B[5] 30.5935 
*END

*D_NET *21 0.00180841
*CONN
*P B[6] O
*I *603:X O *D sg13g2_buf_1
*CAP
1 B[6] 0.000904205
2 *603:X 0.000904205
3 B[6] *603:A 0
4 B[6] *609:A 0
5 B[6] *27:8 0
6 B[6] *110:14 0
*RES
1 *603:X B[6] 31.0467 
*END

*D_NET *22 0.002869
*CONN
*P B[7] O
*I *604:X O *D sg13g2_buf_1
*CAP
1 B[7] 0.000200071
2 *604:X 0.00023875
3 *22:12 0.00119575
4 *22:8 0.00123443
5 B[7] D[8] 0
6 *22:8 D[7] 0
7 *22:8 *591:A 0
8 *22:8 *617:A 0
9 *22:12 D[3] 0
10 *22:12 *613:A 0
11 *22:12 *167:10 0
12 BN[2] *22:12 0
13 BN[6] *22:12 0
14 *17:8 *22:12 0
*RES
1 *604:X *22:8 42.3278 
2 *22:8 *22:12 30.918 
3 *22:12 B[7] 21.9415 
*END

*D_NET *23 0.00343336
*CONN
*P B[8] O
*I *605:X O *D sg13g2_buf_1
*CAP
1 B[8] 0.000352358
2 *605:X 0.000710007
3 *23:12 0.00106236
4 *23:12 D[9] 0.000534168
5 *23:12 *514:A 0
6 *23:12 *593:A 0
7 *23:12 *601:A 0.000209899
8 *23:12 *619:A 0.000372182
9 *23:12 *66:12 0
10 *23:12 *173:8 0.000144843
11 *23:12 *182:8 0
12 *23:12 *187:24 0
13 BN[8] B[8] 0
14 *11:14 *23:12 0
15 *19:10 *23:12 4.75425e-05
*RES
1 *605:X *23:12 48.1885 
2 *23:12 B[8] 3.4093 
*END

*D_NET *24 0.000717765
*CONN
*P B[9] O
*I *606:X O *D sg13g2_buf_1
*CAP
1 B[9] 0.000358883
2 *606:X 0.000358883
3 B[9] *606:A 0
4 BN[9] B[9] 0
*RES
1 *606:X B[9] 43.4814 
*END

*D_NET *25 0.00390187
*CONN
*P D[0] O
*I *607:X O *D sg13g2_buf_1
*CAP
1 D[0] 0.000238437
2 *607:X 0.000186201
3 *25:18 0.000967637
4 *25:12 0.000915402
5 *25:12 *620:A 0.000130011
6 *25:12 *43:8 0.000183978
7 *25:18 *41:9 0
8 *25:18 *42:9 0
9 *25:18 *43:14 0.00128021
10 BN[11] D[0] 0
*RES
1 *607:X *25:12 42.5029 
2 *25:12 *25:18 48.755 
3 *25:18 D[0] 2.18875 
*END

*D_NET *26 0.00126209
*CONN
*P D[10] O
*I *608:X O *D sg13g2_buf_1
*CAP
1 D[10] 0.000542394
2 *608:X 0.000542394
3 D[10] *606:A 0.000177299
4 D[10] *608:A 0
5 BN[9] D[10] 0
*RES
1 *608:X D[10] 45.3354 
*END

*D_NET *27 0.0035412
*CONN
*P D[11] O
*I *609:X O *D sg13g2_buf_1
*CAP
1 D[11] 0.000622978
2 *609:X 0.000647202
3 *27:8 0.00127018
4 *27:8 *621:A 0
5 *27:8 *110:14 0.00017737
6 BN[10] D[11] 0.000823471
7 B[6] *27:8 0
8 *2:8 *27:8 0
*RES
1 *609:X *27:8 47.3692 
2 *27:8 D[11] 28.0392 
*END

*D_NET *28 0.00198742
*CONN
*P D[1] O
*I *611:X O *D sg13g2_buf_1
*CAP
1 D[1] 0.000285932
2 *611:X 0.000707778
3 *28:10 0.000993709
4 *28:10 *588:A 0
5 B[0] D[1] 0
*RES
1 *611:X *28:10 48.6726 
2 *28:10 D[1] 23.4093 
*END

*D_NET *29 0.00128032
*CONN
*P D[2] O
*I *612:X O *D sg13g2_buf_1
*CAP
1 D[2] 0.000551362
2 *612:X 0.000551362
3 D[2] *612:A 0
4 BN[1] D[2] 0
5 B[1] D[2] 0.000177597
*RES
1 *612:X D[2] 44.8822 
*END

*D_NET *30 0.00200833
*CONN
*P D[3] O
*I *613:X O *D sg13g2_buf_1
*CAP
1 D[3] 0.000834446
2 *613:X 0.000834446
3 D[3] *543:A 0
4 D[3] *604:A 0
5 D[3] *613:A 0
6 D[3] *167:10 0.000339441
7 BN[2] D[3] 0
8 B[2] D[3] 0
9 *22:12 D[3] 0
*RES
1 *613:X D[3] 47.4212 
*END

*D_NET *31 0.00280721
*CONN
*P D[4] O
*I *614:X O *D sg13g2_buf_1
*CAP
1 D[4] 0.00105977
2 *614:X 0.000183197
3 *31:10 0.00124296
4 D[4] *571:A 0
5 D[4] *114:71 0
6 D[4] *165:10 0
7 D[4] *168:8 0
8 D[4] *178:141 0
9 D[4] *180:24 0
10 D[4] *181:35 0.000241425
11 D[4] *202:8 0
12 *31:10 *195:14 7.98567e-05
13 BN[3] D[4] 0
14 B[11] D[4] 0
15 B[3] D[4] 0
*RES
1 *614:X *31:10 41.6274 
2 *31:10 D[4] 49.924 
*END

*D_NET *32 0.00168889
*CONN
*P D[5] O
*I *615:X O *D sg13g2_buf_1
*CAP
1 D[5] 0.000844443
2 *615:X 0.000844443
3 D[5] *598:A 0
4 D[5] *615:A 0
5 D[5] *169:23 0
6 D[5] *207:39 0
7 BN[4] D[5] 0
8 B[1] D[5] 0
9 B[4] D[5] 0
*RES
1 *615:X D[5] 47.9722 
*END

*D_NET *33 0.00246371
*CONN
*P D[6] O
*I *616:X O *D sg13g2_buf_1
*CAP
1 D[6] 0.0012079
2 *616:X 0.0012079
3 D[6] *602:A 0
4 D[6] *616:A 4.79124e-05
5 BN[5] D[6] 0
6 B[5] D[6] 0
*RES
1 *616:X D[6] 31.2939 
*END

*D_NET *34 0.000700166
*CONN
*P D[7] O
*I *617:X O *D sg13g2_buf_1
*CAP
1 D[7] 0.000350083
2 *617:X 0.000350083
3 D[7] *604:A 0
4 BN[6] D[7] 0
5 *22:8 D[7] 0
*RES
1 *617:X D[7] 43.7132 
*END

*D_NET *35 0.00483429
*CONN
*P D[8] O
*I *618:X O *D sg13g2_buf_1
*CAP
1 D[8] 0.000261857
2 *618:X 0.00102357
3 *35:10 0.00128542
4 D[8] *41:13 0
5 *35:10 *625:A 0
6 *35:10 *41:9 0
7 *35:10 *42:9 0
8 *35:10 *43:14 0.000566991
9 BN[3] *35:10 0.00037075
10 B[7] D[8] 0
11 *10:8 *35:10 0.000242213
12 *17:8 *35:10 0.00108349
*RES
1 *618:X *35:10 31.8347 
2 *35:10 D[8] 22.6831 
*END

*D_NET *36 0.00281352
*CONN
*P D[9] O
*I *619:X O *D sg13g2_buf_1
*CAP
1 D[9] 0.000873166
2 *619:X 0.000873166
3 D[9] *169:12 0
4 BN[4] D[9] 1.54008e-05
5 BN[8] D[9] 0
6 B[4] D[9] 0
7 *11:14 D[9] 0.00046985
8 *19:10 D[9] 4.77699e-05
9 *23:12 D[9] 0.000534168
*RES
1 *619:X D[9] 49.3112 
*END

*D_NET *37 0.00176006
*CONN
*P Om I
*I *588:A I *D sg13g2_buf_1
*CAP
1 Om 0.000880032
2 *588:A 0.000880032
3 *588:A *589:A 0
4 *588:A *611:A 0
5 *28:10 *588:A 0
*RES
1 Om *588:A 29.182 
*END

*D_NET *38 0.00175667
*CONN
*P Op I
*I *589:A I *D sg13g2_buf_1
*CAP
1 Op 0.000878334
2 *589:A 0.000878334
3 *589:A *506:B1 0
4 *588:A *589:A 0
*RES
1 Op *589:A 29.27 
*END

*D_NET *41 0.008358
*CONN
*P clk I
*I *509:A I *D sg13g2_buf_8
*CAP
1 clk 0.00119318
2 *509:A 0
3 *41:13 0.00147741
4 *41:9 0.00267059
5 *41:9 *42:9 0
6 *41:13 *471:A 0
7 *41:13 *42:13 0
8 *41:13 *97:18 0.00113784
9 *41:13 *112:50 0.00187897
10 *41:13 *172:25 0
11 *41:13 *200:8 0
12 *41:13 *245:12 0
13 BN[7] *41:13 0
14 D[8] *41:13 0
15 *25:18 *41:9 0
16 *35:10 *41:9 0
*RES
1 clk *41:9 32.6432 
2 *41:9 *41:13 38.643 
3 *41:13 *509:A 40 
*END

*D_NET *42 0.0084891
*CONN
*P rst I
*I *532:A I *D sg13g2_buf_2
*CAP
1 rst 0.00105379
2 *532:A 0.000124191
3 *42:13 0.00242347
4 *42:9 0.00335307
5 *532:A *159:6 0
6 *532:A *174:49 0
7 *42:9 *43:14 0
8 *42:13 sign 0
9 *42:13 *471:A 0.000584906
10 *42:13 *491:A0 0
11 *42:13 *97:18 0
12 *42:13 *112:12 0
13 *42:13 *112:50 0
14 *42:13 *118:23 0.000395177
15 *42:13 *157:27 0
16 *42:13 *159:21 0
17 *42:13 *172:25 0
18 *42:13 *234:14 0
19 *42:13 *243:12 0
20 BN[7] *42:13 0.000554491
21 B[11] *42:9 0
22 *25:18 *42:9 0
23 *35:10 *42:9 0
24 *41:9 *42:9 0
25 *41:13 *42:13 0
*RES
1 rst *42:9 31.2218 
2 *42:9 *42:13 44.3286 
3 *42:13 *532:A 40.9682 
*END

*D_NET *43 0.00441678
*CONN
*P sign O
*I *620:X O *D sg13g2_buf_1
*CAP
1 sign 0.00026858
2 *620:X 5.80471e-05
3 *43:14 0.00113475
4 *43:8 0.000924221
5 BN[11] sign 0
6 BN[3] *43:14 0
7 BN[7] sign 0
8 *25:12 *43:8 0.000183978
9 *25:18 *43:14 0.00128021
10 *35:10 *43:14 0.000566991
11 *42:9 *43:14 0
12 *42:13 sign 0
*RES
1 *620:X *43:8 40.8446 
2 *43:8 *43:14 49.4039 
3 *43:14 sign 2.43595 
*END

*D_NET *44 0.00105147
*CONN
*I *251:D I *D sg13g2_dfrbpq_1
*I *433:X O *D sg13g2_a21o_1
*CAP
1 *251:D 0.00010961
2 *433:X 0.000280064
3 *44:10 0.000389674
4 *251:D *457:A1 7.94462e-05
5 *251:D *462:A2 0.000177272
6 *251:D *462:A1 0
7 *44:10 *433:B1 0
8 *44:10 *457:B1 0
9 *44:10 *72:12 1.54008e-05
10 *44:10 *113:72 0
11 *44:10 *144:66 0
*RES
1 *433:X *44:10 42.8016 
2 *44:10 *251:D 41.1845 
*END

*D_NET *45 0.000533556
*CONN
*I *253:D I *D sg13g2_dfrbpq_1
*I *437:X O *D sg13g2_a21o_1
*CAP
1 *253:D 0.00025905
2 *437:X 0.00025905
3 *253:D *253:RESET_B 1.54556e-05
4 *253:D *464:A2 0
5 *253:D *126:8 0
*RES
1 *437:X *253:D 42.7089 
*END

*D_NET *46 0.00296135
*CONN
*I *572:A I *D sg13g2_dlygate4sd3_1
*I *439:X O *D sg13g2_a21o_1
*CAP
1 *572:A 0.000571737
2 *439:X 0.0004163
3 *46:10 0.000988037
4 *572:A *439:A2 0.00043584
5 *572:A *472:A2 0
6 *572:A *472:A1 0
7 *572:A *511:A 0
8 *572:A *549:A 0
9 *572:A *80:22 4.79124e-05
10 *46:10 *439:B1 0.000112791
11 *46:10 *445:A 0
12 *46:10 *445:D 0
13 *46:10 *535:A 0
14 *46:10 *145:10 0.000291502
15 *46:10 *157:65 9.72278e-05
16 *46:10 *196:14 0
17 *46:10 *230:10 0
*RES
1 *439:X *46:10 44.7483 
2 *46:10 *572:A 45.5105 
*END

*D_NET *47 0.000748033
*CONN
*I *257:D I *D sg13g2_dfrbpq_1
*I *442:X O *D sg13g2_a21o_1
*CAP
1 *257:D 0.000236854
2 *442:X 0.000236854
3 *257:D *574:A 0
4 *257:D *59:10 0
5 *257:D *155:20 0.000274325
*RES
1 *442:X *257:D 42.6471 
*END

*D_NET *48 0.00154753
*CONN
*I *259:D I *D sg13g2_dfrbpq_1
*I *444:X O *D sg13g2_a21o_1
*CAP
1 *259:D 0
2 *444:X 0.000546491
3 *48:10 0.000546491
4 *48:10 *444:A2 0
5 *48:10 *444:B1 0
6 *48:10 *478:A2 0
7 *48:10 *479:A 0
8 *48:10 *60:12 0.000342122
9 *48:10 *99:47 0
10 *48:10 *110:14 0
11 *48:10 *128:10 0
12 *48:10 *196:51 0.000112426
*RES
1 *444:X *48:10 46.1079 
2 *48:10 *259:D 40 
*END

*D_NET *49 0.0043529
*CONN
*I *542:A I *D sg13g2_dlygate4sd3_1
*I *446:X O *D sg13g2_a21o_1
*CAP
1 *542:A 0
2 *446:X 0.000264289
3 *49:16 0.000299253
4 *49:8 0.000563542
5 *49:8 *157:27 0
6 *49:8 *240:10 0
7 *49:8 *240:23 2.20966e-05
8 *49:8 *243:12 0.000341119
9 *49:16 *455:B1 8.00842e-05
10 *49:16 *174:10 8.00842e-05
11 *49:16 *234:14 0.00135122
12 *49:16 *243:12 0.00135122
*RES
1 *446:X *49:8 42.575 
2 *49:8 *49:16 46.8186 
3 *49:16 *542:A 40 
*END

*D_NET *50 0.00021151
*CONN
*I *546:A I *D sg13g2_dlygate4sd3_1
*I *449:X O *D sg13g2_a21o_1
*CAP
1 *546:A 0.000105755
2 *449:X 0.000105755
3 *546:A *449:B1 0
*RES
1 *449:X *546:A 41.133 
*END

*D_NET *51 0.0015944
*CONN
*I *570:A I *D sg13g2_dlygate4sd3_1
*I *451:X O *D sg13g2_a21o_1
*CAP
1 *570:A 0.0007972
2 *451:X 0.0007972
3 *570:A *265:CLK 0
4 *570:A *289:RESET_B 0
5 *570:A *493:S 0
6 *570:A *512:A 0
7 *570:A *115:8 0
8 *570:A *115:78 0
9 *570:A *178:102 0
*RES
1 *451:X *570:A 47.8383 
*END

*D_NET *52 0.000180604
*CONN
*I *561:A I *D sg13g2_dlygate4sd3_1
*I *453:X O *D sg13g2_a21o_1
*CAP
1 *561:A 9.03022e-05
2 *453:X 9.03022e-05
3 *561:A *453:B1 0
*RES
1 *453:X *561:A 41.133 
*END

*D_NET *53 0.0031289
*CONN
*I *552:A I *D sg13g2_dlygate4sd3_1
*I *455:X O *D sg13g2_a21o_1
*CAP
1 *552:A 0.00023822
2 *455:X 0.000322702
3 *53:8 0.000560922
4 *552:A *485:A 8.00842e-05
5 *552:A *511:A 0
6 *552:A *133:34 0
7 *53:8 *443:A 0.000235055
8 *53:8 *240:23 0.00039332
9 *53:8 *243:12 0.0012986
*RES
1 *455:X *53:8 46.0358 
2 *53:8 *552:A 42.266 
*END

*D_NET *54 0.000461289
*CONN
*I *586:A I *D sg13g2_dlygate4sd3_1
*I *457:X O *D sg13g2_a21o_1
*CAP
1 *586:A 0.000230644
2 *457:X 0.000230644
3 *586:A *462:A2 0
4 *586:A *72:12 0
*RES
1 *457:X *586:A 42.2145 
*END

*D_NET *55 0.000994561
*CONN
*I *564:A I *D sg13g2_dlygate4sd3_1
*I *459:X O *D sg13g2_a21o_1
*CAP
1 *564:A 0
2 *459:X 0.000433329
3 *55:12 0.000433329
4 *55:12 *257:CLK 0
5 *55:12 *86:14 0
6 *55:12 *138:8 0.000127904
7 *55:12 *220:10 0
8 *55:12 *231:8 0
*RES
1 *459:X *55:12 44.6968 
2 *55:12 *564:A 40 
*END

*D_NET *56 0.000505749
*CONN
*I *275:D I *D sg13g2_dfrbpq_1
*I *462:X O *D sg13g2_a21o_1
*CAP
1 *275:D 0.000252874
2 *462:X 0.000252874
*RES
1 *462:X *275:D 43.0591 
*END

*D_NET *57 0.000796837
*CONN
*I *277:D I *D sg13g2_dfrbpq_1
*I *464:X O *D sg13g2_a21o_1
*CAP
1 *277:D 0
2 *464:X 0.000390691
3 *57:10 0.000390691
4 *57:10 *253:RESET_B 1.54556e-05
5 *57:10 *277:CLK 0
6 *57:10 *464:A2 0
7 *57:10 *493:A1 0
8 *57:10 *602:A 0
9 *57:10 *158:37 0
10 *57:10 *183:18 0
*RES
1 *464:X *57:10 43.6727 
2 *57:10 *277:D 40 
*END

*D_NET *58 0.000248478
*CONN
*I *579:A I *D sg13g2_dlygate4sd3_1
*I *466:X O *D sg13g2_a21o_1
*CAP
1 *579:A 0.000100368
2 *466:X 0.000100368
3 *579:A *279:CLK 0
4 *579:A *107:31 0
5 *579:A *121:12 0
6 *579:A *229:24 4.77425e-05
*RES
1 *466:X *579:A 41.133 
*END

*D_NET *59 0.00107333
*CONN
*I *281:D I *D sg13g2_dfrbpq_1
*I *468:X O *D sg13g2_a21o_1
*CAP
1 *281:D 0
2 *468:X 0.000224324
3 *59:10 0.000224324
4 *59:10 *489:A1 0
5 *59:10 *155:10 0.000181694
6 *59:10 *155:63 0.000127867
7 *59:10 *155:76 0.000235075
8 *59:10 *229:44 8.005e-05
9 *257:D *59:10 0
*RES
1 *468:X *59:10 42.8634 
2 *59:10 *281:D 40 
*END

*D_NET *60 0.00088351
*CONN
*I *556:A I *D sg13g2_dlygate4sd3_1
*I *470:X O *D sg13g2_a21o_1
*CAP
1 *556:A 0
2 *470:X 0.000270694
3 *60:12 0.000270694
4 *60:12 *283:D 0
5 *60:12 *128:10 0
6 *48:10 *60:12 0.000342122
*RES
1 *470:X *60:12 42.9664 
2 *60:12 *556:A 40 
*END

*D_NET *61 0.00222127
*CONN
*I *549:A I *D sg13g2_dlygate4sd3_1
*I *472:X O *D sg13g2_a21o_1
*CAP
1 *549:A 0.000771946
2 *472:X 0.000771946
3 *549:A *255:RESET_B 0.00024154
4 *549:A *439:A2 0.00043584
5 *549:A *577:A 0
6 *549:A *80:22 0
7 *549:A *157:65 0
8 *572:A *549:A 0
*RES
1 *472:X *549:A 47.9413 
*END

*D_NET *62 0.000193929
*CONN
*I *584:A I *D sg13g2_dlygate4sd3_1
*I *474:X O *D sg13g2_a21o_1
*CAP
1 *584:A 9.69644e-05
2 *474:X 9.69644e-05
*RES
1 *474:X *584:A 41.133 
*END

*D_NET *63 0.00129421
*CONN
*I *554:A I *D sg13g2_dlygate4sd3_1
*I *476:X O *D sg13g2_a21o_1
*CAP
1 *554:A 0
2 *476:X 0.000421646
3 *63:12 0.000421646
4 *63:12 *512:A 0
5 *63:12 *562:A 0
6 *63:12 *86:14 0
7 *63:12 *103:73 0
8 *63:12 *138:8 0.000450917
9 *63:12 *155:24 0
10 *63:12 *155:41 0
*RES
1 *476:X *63:12 44.6968 
2 *63:12 *554:A 40 
*END

*D_NET *64 0.00237408
*CONN
*I *568:A I *D sg13g2_dlygate4sd3_1
*I *478:X O *D sg13g2_a21o_1
*CAP
1 *568:A 0.000694413
2 *478:X 0.000694413
3 *568:A *267:RESET_B 0.000598365
4 *568:A *291:CLK 0.000339008
5 *568:A *478:A1 4.78769e-05
6 *568:A *494:S 0
7 *568:A *559:A 0
8 *568:A *132:12 0
9 *568:A *158:29 0
10 *568:A *164:8 0
*RES
1 *478:X *568:A 47.5311 
*END

*D_NET *65 0.00255238
*CONN
*I *544:A I *D sg13g2_dlygate4sd3_1
*I *480:X O *D sg13g2_a21o_1
*CAP
1 *544:A 0
2 *480:X 0.00050919
3 *65:12 0.00050919
4 *65:12 *293:D 0.000240519
5 *65:12 *444:A2 0
6 *65:12 *452:A 8.00842e-05
7 *65:12 *471:D 0
8 *65:12 *477:A 0.000106064
9 *65:12 *99:47 0.00023464
10 *65:12 *110:14 0.000531987
11 *65:12 *236:8 0.000340704
*RES
1 *480:X *65:12 46.3654 
2 *65:12 *544:A 40 
*END

*D_NET *66 0.00084565
*CONN
*I *295:D I *D sg13g2_dfrbpq_1
*I *482:X O *D sg13g2_a21o_1
*CAP
1 *295:D 0
2 *482:X 0.000366554
3 *66:12 0.000366554
4 *66:12 *481:C 0
5 *66:12 *482:A2 0
6 *66:12 *482:B1 0
7 *66:12 *187:24 0.000112541
8 *23:12 *66:12 0
*RES
1 *482:X *66:12 43.7704 
2 *66:12 *295:D 40 
*END

*D_NET *67 0.00166202
*CONN
*I *566:A I *D sg13g2_dlygate4sd3_1
*I *484:X O *D sg13g2_a21o_1
*CAP
1 *566:A 0.0001716
2 *484:X 0.000301586
3 *67:8 0.000473186
4 *566:A *289:D 0
5 *566:A *512:A 0
6 *67:8 *109:8 0
7 *67:8 *138:8 0.000715647
*RES
1 *484:X *67:8 44.3054 
2 *67:8 *566:A 41.8334 
*END

*D_NET *68 0.00253896
*CONN
*I *517:D I *D sg13g2_dfrbpq_1
*I *500:Y O *D sg13g2_o21ai_1
*CAP
1 *517:D 0
2 *500:Y 0.000743477
3 *68:10 0.000743477
4 *68:10 *507:B1 0.000237686
5 *68:10 *70:10 0.000236635
6 *68:10 *113:72 0.000177442
7 *68:10 *121:91 0
8 *68:10 *121:121 0
9 *68:10 *144:37 0.000400239
10 *68:10 *149:10 0
*RES
1 *500:Y *68:10 48.4563 
2 *68:10 *517:D 40 
*END

*D_NET *69 0.000661506
*CONN
*I *519:D I *D sg13g2_dfrbpq_2
*I *503:Y O *D sg13g2_nand3b_1
*CAP
1 *519:D 0
2 *503:Y 0.000266824
3 *69:10 0.000266824
4 *69:10 *497:A 0.000112458
5 *69:10 *147:27 1.54008e-05
6 *69:10 *161:31 0
*RES
1 *503:Y *69:10 42.4926 
2 *69:10 *519:D 40 
*END

*D_NET *70 0.00199461
*CONN
*I *575:A I *D sg13g2_dlygate4sd3_1
*I *506:Y O *D sg13g2_a21oi_1
*CAP
1 *575:A 0
2 *506:Y 0.000717884
3 *70:10 0.000717884
4 *70:10 *506:B1 0
5 *70:10 *521:D 0.000241983
6 *70:10 *523:RESET_B 8.02269e-05
7 *70:10 *92:26 0
8 *70:10 *161:12 0
9 *70:10 *215:8 0
10 *68:10 *70:10 0.000236635
*RES
1 *506:Y *70:10 46.6023 
2 *70:10 *575:A 40 
*END

*D_NET *71 0.00115942
*CONN
*I *523:D I *D sg13g2_dfrbpq_2
*I *507:X O *D sg13g2_a21o_1
*CAP
1 *523:D 0.000479901
2 *507:X 0.000479901
3 *523:D *611:A 0
4 *523:D *144:43 0
5 *523:D *149:14 0
6 *523:D *149:30 2.21754e-05
7 *523:D *161:12 0.000177442
*RES
1 *507:X *523:D 44.8925 
*END

*D_NET *72 0.00131095
*CONN
*I *457:A2 I *D sg13g2_a21o_1
*I *456:Y O *D sg13g2_nand3_1
*CAP
1 *457:A2 8.70548e-06
2 *456:Y 0.000387006
3 *72:12 0.000395711
4 *457:A2 *457:A1 1.70012e-05
5 *457:A2 *462:A1 1.70012e-05
6 *72:12 *457:B1 0.00012842
7 *72:12 *113:72 0
8 *72:12 *130:8 0
9 *72:12 *144:47 0.0003417
10 *72:12 *144:66 0
11 *72:12 *173:40 0
12 *586:A *72:12 0
13 *44:10 *72:12 1.54008e-05
*RES
1 *456:Y *72:12 44.7277 
2 *72:12 *457:A2 40.1133 
*END

*D_NET *73 0.00335127
*CONN
*I *459:A2 I *D sg13g2_a21o_1
*I *458:Y O *D sg13g2_nand3_1
*CAP
1 *459:A2 0.000297986
2 *458:Y 0.000457905
3 *73:8 0.000755891
4 *459:A2 *257:CLK 0.000266422
5 *459:A2 *459:A1 0.000121696
6 *459:A2 *459:B1 0.000177298
7 *73:8 *489:A0 0
8 *73:8 *124:8 0
9 *73:8 *155:20 0
10 *73:8 *193:8 0.000876754
11 *73:8 *237:10 0.000397323
*RES
1 *458:Y *73:8 46.5302 
2 *73:8 *459:A2 43.2188 
*END

*D_NET *74 0.00384348
*CONN
*I *537:A I *D sg13g2_buf_8
*I *538:A I *D sg13g2_buf_1
*I *460:Y O *D sg13g2_nor2b_1
*CAP
1 *537:A 0.000320467
2 *538:A 0
3 *460:Y 0.000958553
4 *74:10 0.000638086
5 *537:A *107:12 0
6 *537:A *160:33 0.00050003
7 *74:10 *480:B1 0
8 *74:10 *527:A 0
9 *74:10 *107:89 0
10 *74:10 *133:10 0
11 *74:10 *174:70 0
12 *74:10 *178:133 0.00119171
13 *74:10 *185:79 0.00023464
14 *74:10 *229:14 0
*RES
1 *460:Y *74:10 48.1473 
2 *74:10 *538:A 40 
3 *460:Y *537:A 43.3475 
*END

*D_NET *75 0.00260611
*CONN
*I *462:A2 I *D sg13g2_a21o_1
*I *461:Y O *D sg13g2_nand3_1
*CAP
1 *462:A2 0.000621659
2 *461:Y 0.000222928
3 *75:10 0.000844587
4 *462:A2 *457:A1 0
5 *462:A2 *457:B1 4.77699e-05
6 *462:A2 *462:A1 8.17725e-05
7 *462:A2 *144:66 0.000305192
8 *462:A2 *173:40 0.000304936
9 *75:10 *547:A 0
10 *75:10 *95:67 0
11 *75:10 *229:85 0
12 *251:D *462:A2 0.000177272
13 *586:A *462:A2 0
*RES
1 *461:Y *75:10 42.1527 
2 *75:10 *462:A2 46.901 
*END

*D_NET *76 0.00199487
*CONN
*I *464:A2 I *D sg13g2_a21o_1
*I *463:Y O *D sg13g2_nand3_1
*CAP
1 *464:A2 0.000754475
2 *463:Y 0.000754475
3 *464:A2 *253:RESET_B 0
4 *464:A2 *277:CLK 0.000438154
5 *464:A2 *437:A1 0
6 *464:A2 *437:B1 4.77699e-05
7 *464:A2 *463:B 0
8 *464:A2 *126:8 0
9 *464:A2 *133:60 0
10 *464:A2 *158:37 0
11 *253:D *464:A2 0
12 *57:10 *464:A2 0
*RES
1 *463:Y *464:A2 48.7859 
*END

*D_NET *77 0.000290559
*CONN
*I *466:A2 I *D sg13g2_a21o_1
*I *465:Y O *D sg13g2_nand4_1
*CAP
1 *466:A2 0.00014528
2 *465:Y 0.00014528
3 *466:A2 *466:B1 0
4 *466:A2 *157:94 0
5 *466:A2 *174:57 0
6 *466:A2 *174:70 0
*RES
1 *465:Y *466:A2 41.169 
*END

*D_NET *78 0.000146263
*CONN
*I *468:A2 I *D sg13g2_a21o_1
*I *467:Y O *D sg13g2_nand3_1
*CAP
1 *468:A2 6.46613e-05
2 *467:Y 6.46613e-05
3 *468:A2 *467:A 0
4 *468:A2 *468:A1 1.69409e-05
5 *468:A2 *112:37 0
*RES
1 *467:Y *468:A2 40.7107 
*END

*D_NET *79 0.000553795
*CONN
*I *470:A2 I *D sg13g2_a21o_1
*I *469:Y O *D sg13g2_nand3_1
*CAP
1 *470:A2 1.21919e-05
2 *469:Y 0.000264706
3 *79:8 0.000276898
4 *79:8 *101:8 0
5 *79:8 *132:12 0
6 *79:8 *158:18 0
7 *79:8 *196:51 0
8 *79:8 *218:26 0
*RES
1 *469:Y *79:8 42.575 
2 *79:8 *470:A2 40.1133 
*END

*D_NET *80 0.0043356
*CONN
*I *472:A2 I *D sg13g2_a21o_1
*I *471:Y O *D sg13g2_nand4_1
*CAP
1 *472:A2 0.000587203
2 *471:Y 0.000168369
3 *80:22 0.00114468
4 *80:10 0.000725844
5 *472:A2 *255:CLK 0
6 *472:A2 *261:RESET_B 0
7 *472:A2 *472:A1 0.000533238
8 *472:A2 *485:A 0
9 *472:A2 *511:A 0.000306984
10 *472:A2 *145:10 0
11 *472:A2 *230:10 0
12 *80:10 *471:A 4.75442e-05
13 *80:10 *511:A 0.000143571
14 *80:10 *99:69 4.75151e-05
15 *80:10 *234:14 0.000181192
16 *80:22 *443:A 0.000112426
17 *80:22 *444:A2 0
18 *80:22 *511:A 0.000112684
19 *80:22 *157:65 0
20 *80:22 *163:121 0.000176444
21 *549:A *80:22 0
22 *572:A *472:A2 0
23 *572:A *80:22 4.79124e-05
*RES
1 *471:Y *80:10 41.8128 
2 *80:10 *80:22 45.6959 
3 *80:22 *472:A2 46.386 
*END

*D_NET *81 0.000200417
*CONN
*I *474:A2 I *D sg13g2_a21o_1
*I *473:Y O *D sg13g2_nand3_1
*CAP
1 *474:A2 8.97567e-06
2 *473:Y 7.42618e-05
3 *81:8 8.32375e-05
4 *474:A2 *474:A1 1.70012e-05
5 *474:A2 *229:59 1.69409e-05
6 *81:8 *207:29 0
7 *81:8 *229:59 0
*RES
1 *473:Y *81:8 40.5974 
2 *81:8 *474:A2 40.1133 
*END

*D_NET *82 0.000458255
*CONN
*I *476:A2 I *D sg13g2_a21o_1
*I *475:Y O *D sg13g2_nand3_1
*CAP
1 *476:A2 0.000149044
2 *475:Y 0.000149044
3 *476:A2 *476:A1 8.00842e-05
4 *476:A2 *512:A 0
5 *476:A2 *103:54 8.00842e-05
6 *476:A2 *155:24 0
*RES
1 *475:Y *476:A2 41.5759 
*END

*D_NET *83 0.00287401
*CONN
*I *478:A2 I *D sg13g2_a21o_1
*I *477:Y O *D sg13g2_nand3_1
*CAP
1 *478:A2 0.000196063
2 *477:Y 0.000481272
3 *83:8 0.000677336
4 *478:A2 *479:A 0
5 *478:A2 *158:12 0.000144938
6 *478:A2 *218:18 8.00842e-05
7 *83:8 *84:8 0.00023464
8 *83:8 *99:47 0.000400365
9 *83:8 *133:10 0
10 *83:8 *236:8 0.000659311
11 *48:10 *478:A2 0
*RES
1 *477:Y *83:8 45.7886 
2 *83:8 *478:A2 42.1372 
*END

*D_NET *84 0.00141037
*CONN
*I *480:A2 I *D sg13g2_a21o_1
*I *479:Y O *D sg13g2_nand4_1
*CAP
1 *480:A2 0.000361048
2 *479:Y 5.49593e-05
3 *84:8 0.000416008
4 *480:A2 *444:B1 0.000154968
5 *480:A2 *196:51 0
6 *84:8 *218:18 0.00018875
7 *83:8 *84:8 0.00023464
*RES
1 *479:Y *84:8 41.0918 
2 *84:8 *480:A2 43.2188 
*END

*D_NET *85 0.00233378
*CONN
*I *482:A2 I *D sg13g2_a21o_1
*I *481:Y O *D sg13g2_nand3_1
*CAP
1 *482:A2 0.000633329
2 *481:Y 0.000633329
3 *482:A2 *271:CLK 0.000274527
4 *482:A2 *481:B 0
5 *482:A2 *481:C 0.000565908
6 *482:A2 *482:A1 4.77702e-05
7 *482:A2 *482:B1 0
8 *482:A2 *113:27 0.000178913
9 *482:A2 *113:48 0
10 *66:12 *482:A2 0
*RES
1 *481:Y *482:A2 46.5199 
*END

*D_NET *86 0.00301479
*CONN
*I *484:A2 I *D sg13g2_a21o_1
*I *483:Y O *D sg13g2_nand3_1
*CAP
1 *484:A2 0
2 *483:Y 7.38331e-05
3 *86:14 0.0010497
4 *86:8 0.00112353
5 *86:8 *231:8 0.000111827
6 *86:14 *476:A1 0
7 *86:14 *483:B 0
8 *86:14 *103:73 0.000502363
9 *86:14 *109:8 0.000128353
10 *86:14 *136:8 0
11 *86:14 *138:8 0
12 *86:14 *155:49 0
13 *86:14 *178:102 2.51854e-05
14 *55:12 *86:14 0
15 *63:12 *86:14 0
*RES
1 *483:Y *86:8 40.7519 
2 *86:8 *86:14 31.3969 
3 *86:14 *484:A2 20 
*END

*D_NET *87 0.00713518
*CONN
*I *498:B1 I *D sg13g2_a21o_1
*I *501:A2 I *D sg13g2_o21ai_1
*I *502:C I *D sg13g2_or3_1
*I *504:A_N I *D sg13g2_nand3b_1
*I *505:A2 I *D sg13g2_o21ai_1
*I *499:A2 I *D sg13g2_a21oi_1
*I *497:Y O *D sg13g2_xnor2_1
*CAP
1 *498:B1 9.30992e-05
2 *501:A2 7.46737e-05
3 *502:C 0.000183829
4 *504:A_N 0
5 *505:A2 0
6 *499:A2 8.70374e-05
7 *497:Y 0.000297383
8 *87:37 0.00027184
9 *87:31 0.000340723
10 *87:29 0.000353891
11 *87:16 0.000391522
12 *87:14 0.000386858
13 *87:10 0.000499362
14 *498:B1 *95:14 0.000134285
15 *498:B1 *95:16 1.54285e-05
16 *498:B1 *174:33 0
17 *499:A2 *185:14 8.00842e-05
18 *499:A2 *185:24 1.54008e-05
19 *499:A2 *185:36 4.77702e-05
20 *501:A2 *174:33 0.000144217
21 *501:A2 *185:36 0.000129571
22 *502:C *502:A 0
23 *502:C *502:B 0
24 *502:C *504:B 0
25 *502:C *149:30 0.000225112
26 *502:C *161:12 0
27 *87:10 *90:8 0
28 *87:10 *161:16 0.000237686
29 *87:10 *229:101 0.00064415
30 *87:14 *229:101 0.000291942
31 *87:16 *174:33 0.000338237
32 *87:16 *185:36 0.000355409
33 *87:29 *174:27 0.000212508
34 *87:29 *174:33 0.00018387
35 *87:29 *185:8 0.000288747
36 *87:29 *185:12 0.00018387
37 *87:31 *95:26 3.15716e-05
38 *87:31 *149:30 0.000112426
39 *87:37 *504:B 7.46398e-05
40 *87:37 *92:12 0.000130055
41 *87:37 *95:26 7.34889e-05
42 *87:37 *121:85 2.16289e-05
43 *87:37 *185:8 0
44 *87:37 *211:12 0.000182859
*RES
1 *497:Y *87:10 43.605 
2 *87:10 *87:14 21.339 
3 *87:14 *87:16 2.4823 
4 *87:16 *499:A2 20.7519 
5 *87:16 *87:29 42.0806 
6 *87:29 *87:31 0.7519 
7 *87:31 *87:37 42.8222 
8 *87:37 *505:A2 20 
9 *87:31 *504:A_N 20 
10 *87:29 *502:C 22.0729 
11 *87:14 *501:A2 20.9682 
12 *87:10 *498:B1 40.9682 
*END

*D_NET *88 0.0011009
*CONN
*I *500:A2 I *D sg13g2_o21ai_1
*I *498:X O *D sg13g2_a21o_1
*CAP
1 *500:A2 0
2 *498:X 0.000375693
3 *88:10 0.000375693
4 *88:10 *96:10 0
5 *88:10 *174:33 0.000111828
6 *88:10 *185:24 0.000237686
*RES
1 *498:X *88:10 43.6977 
2 *88:10 *500:A2 40 
*END

*D_NET *89 0.000354077
*CONN
*I *500:B1 I *D sg13g2_o21ai_1
*I *499:Y O *D sg13g2_a21oi_1
*CAP
1 *500:B1 0.000136925
2 *499:Y 0.000136925
3 *500:B1 *547:A 8.02269e-05
4 *500:B1 *144:31 0
5 *500:B1 *185:24 0
6 *500:B1 *229:65 0
*RES
1 *499:Y *500:B1 41.6274 
*END

*D_NET *90 0.00177639
*CONN
*I *503:B I *D sg13g2_nand3b_1
*I *501:Y O *D sg13g2_o21ai_1
*CAP
1 *503:B 0.000161139
2 *501:Y 0.000482226
3 *90:8 0.000643365
4 *503:B *497:A 4.75166e-05
5 *503:B *503:C 1.94673e-05
6 *503:B *147:27 8.01116e-05
7 *90:8 *161:16 0.000342563
8 *90:8 *185:40 0
9 *90:8 *185:53 0
10 *87:10 *90:8 0
*RES
1 *501:Y *90:8 44.3054 
2 *90:8 *503:B 41.4008 
*END

*D_NET *91 0.000432375
*CONN
*I *503:C I *D sg13g2_nand3b_1
*I *502:X O *D sg13g2_or3_1
*CAP
1 *503:C 2.23746e-05
2 *502:X 0.000175918
3 *91:10 0.000198293
4 *503:C *503:A_N 1.63226e-05
5 *91:10 *505:A1 0
6 *91:10 *163:33 0
7 *503:B *503:C 1.94673e-05
*RES
1 *502:X *91:10 41.6274 
2 *91:10 *503:C 40.3451 
*END

*D_NET *92 0.00342594
*CONN
*I *507:A2 I *D sg13g2_a21o_1
*I *506:A1 I *D sg13g2_a21oi_1
*I *504:Y O *D sg13g2_nand3b_1
*CAP
1 *507:A2 0
2 *506:A1 0
3 *504:Y 0.000163054
4 *92:26 0.000825384
5 *92:16 0.000899798
6 *92:12 0.000237467
7 *92:12 *161:12 0.000112426
8 *92:16 *149:30 0
9 *92:16 *161:12 0.000109767
10 *92:26 *506:A2 0
11 *92:26 *506:B1 0
12 *92:26 *507:A1 8.01995e-05
13 *92:26 *521:RESET_B 0.000241983
14 *92:26 *149:14 4.77699e-05
15 *92:26 *149:30 0
16 *92:26 *161:12 0.000178798
17 *92:26 *215:8 0.000399241
18 *70:10 *92:26 0
19 *87:37 *92:12 0.000130055
*RES
1 *504:Y *92:12 41.8849 
2 *92:12 *92:16 20.7416 
3 *92:16 *92:26 48.5387 
4 *92:26 *506:A1 20 
5 *92:16 *507:A2 20 
*END

*D_NET *93 0.00169572
*CONN
*I *506:A2 I *D sg13g2_a21oi_1
*I *505:Y O *D sg13g2_o21ai_1
*CAP
1 *506:A2 0.000847859
2 *505:Y 0.000847859
3 *506:A2 *517:RESET_B 0
4 *506:A2 *521:RESET_B 0
5 *506:A2 *536:A 0
6 *506:A2 *149:10 0
7 *506:A2 *161:12 0
8 *92:26 *506:A2 0
*RES
1 *505:Y *506:A2 48.4048 
*END

*D_NET *94 0.00101084
*CONN
*I *539:A I *D sg13g2_buf_8
*I *540:A I *D sg13g2_buf_1
*I *428:Y O *D sg13g2_nor2b_1
*CAP
1 *539:A 0
2 *540:A 0.000272255
3 *428:Y 0.000160741
4 *94:6 0.000432996
5 *540:A *454:C 0
6 *540:A *107:12 0
7 *540:A *196:39 0
8 *94:6 *454:C 0
9 *94:6 *107:12 0
10 *94:6 *229:14 0.000144843
*RES
1 *428:Y *94:6 21.6171 
2 *94:6 *540:A 22.3999 
3 *94:6 *539:A 20 
*END

*D_NET *95 0.00968186
*CONN
*I *498:A1 I *D sg13g2_a21o_1
*I *432:B I *D sg13g2_nand3_1
*I *473:A I *D sg13g2_nand3_1
*I *448:B I *D sg13g2_nand3_1
*I *481:A I *D sg13g2_nand3_1
*I *456:B I *D sg13g2_nand3_1
*I *461:A I *D sg13g2_nand3_1
*I *504:C I *D sg13g2_nand3b_1
*I *429:Y O *D sg13g2_nor2_2
*CAP
1 *498:A1 0
2 *432:B 0.000324327
3 *473:A 0
4 *448:B 0
5 *481:A 0
6 *456:B 3.1854e-05
7 *461:A 2.27909e-05
8 *504:C 0
9 *429:Y 0.000178718
10 *95:89 0.000558038
11 *95:76 0.000269529
12 *95:67 0.000798916
13 *95:52 0.00102248
14 *95:41 0.000591591
15 *95:35 0.00067315
16 *95:26 0.00025295
17 *95:16 0.000536193
18 *95:14 0.000201722
19 *432:B *107:60 0
20 *432:B *163:75 0.000533123
21 *432:B *229:59 0.000598036
22 *456:B *456:C 1.54008e-05
23 *95:14 *498:A2 1.69409e-05
24 *95:14 *502:B 0
25 *95:14 *149:30 1.54285e-05
26 *95:14 *174:33 0
27 *95:14 *174:40 0
28 *95:14 *174:49 0
29 *95:16 *149:30 4.77702e-05
30 *95:26 *430:A 0
31 *95:26 *96:10 0.000176484
32 *95:26 *121:85 0
33 *95:26 *149:30 0.000273509
34 *95:26 *185:8 0.000179315
35 *95:35 *96:10 7.62389e-05
36 *95:41 *108:8 0
37 *95:41 *112:20 0.000180645
38 *95:41 *163:60 0.000192189
39 *95:41 *229:75 0.000338012
40 *95:52 *163:60 3.15716e-05
41 *95:52 *173:40 0
42 *95:52 *229:85 0.000175712
43 *95:67 *271:CLK 0
44 *95:67 *481:B 0.000306896
45 *95:67 *585:A 0
46 *95:67 *121:91 0
47 *95:67 *173:40 0
48 *95:67 *187:24 0
49 *95:67 *187:31 0
50 *95:67 *212:10 0.000400636
51 *95:76 *448:C 1.54285e-05
52 *95:76 *229:65 1.54285e-05
53 *95:89 *448:C 0.000279069
54 *95:89 *229:59 0
55 *95:89 *229:65 9.70004e-05
56 *498:B1 *95:14 0.000134285
57 *498:B1 *95:16 1.54285e-05
58 *75:10 *95:67 0
59 *87:31 *95:26 3.15716e-05
60 *87:37 *95:26 7.34889e-05
*RES
1 *429:Y *95:14 22.06 
2 *95:14 *95:16 0.3193 
3 *95:16 *95:26 42.8891 
4 *95:26 *504:C 20 
5 *95:16 *95:35 22.575 
6 *95:35 *95:41 24.0222 
7 *95:41 *461:A 20.3502 
8 *95:41 *95:52 2.07545 
9 *95:52 *456:B 20.3193 
10 *95:52 *95:67 48.2709 
11 *95:67 *481:A 20 
12 *95:35 *95:76 20.3193 
13 *95:76 *448:B 20 
14 *95:76 *95:89 2.6368 
15 *95:89 *473:A 20 
16 *95:89 *432:B 23.9964 
17 *95:14 *498:A1 20 
*END

*D_NET *96 0.00195446
*CONN
*I *502:A I *D sg13g2_or3_1
*I *505:A1 I *D sg13g2_o21ai_1
*I *430:X O *D sg13g2_or2_1
*CAP
1 *502:A 4.64953e-05
2 *505:A1 0.0004287
3 *430:X 0.000304102
4 *96:10 0.000779298
5 *502:A *502:B 1.54282e-05
6 *502:A *161:12 8.01995e-05
7 *505:A1 *174:27 0
8 *96:10 *430:A 4.75151e-05
9 *96:10 *149:30 0
10 *96:10 *174:27 0
11 *96:10 *174:33 0
12 *502:C *502:A 0
13 *88:10 *96:10 0
14 *91:10 *505:A1 0
15 *95:26 *96:10 0.000176484
16 *95:35 *96:10 7.62389e-05
*RES
1 *430:X *96:10 43.0179 
2 *96:10 *505:A1 43.5226 
3 *96:10 *502:A 40.5356 
*END

*D_NET *97 0.00644428
*CONN
*I *582:A I *D sg13g2_dlygate4sd3_1
*I *469:A I *D sg13g2_nand3_1
*I *471:C I *D sg13g2_nand4_1
*I *431:Y O *D sg13g2_nor2_2
*CAP
1 *582:A 0
2 *469:A 0.000690967
3 *471:C 0
4 *431:Y 0.000504558
5 *97:33 0.00100572
6 *97:18 0.000491232
7 *97:10 0.00131054
8 *469:A *436:B 4.77425e-05
9 *469:A *436:A 0.000144657
10 *469:A *454:A 0.000102287
11 *469:A *99:10 0
12 *469:A *99:14 0
13 *469:A *132:12 0
14 *469:A *158:12 0
15 *469:A *163:10 0
16 *469:A *229:14 0
17 *97:10 *455:A2 0
18 *97:10 *519:CLK 0.000193585
19 *97:10 *106:10 0
20 *97:10 *157:33 0.000176394
21 *97:10 *174:10 0
22 *97:10 *196:39 0.000596284
23 *97:18 *471:B 2.70686e-05
24 *97:18 *471:A 0
25 *97:18 *471:D 1.54008e-05
26 *97:18 *118:23 0
27 *97:33 *455:A2 0
28 *97:33 *112:50 0
29 *97:33 *196:39 0
30 *97:33 *196:43 0
31 *41:13 *97:18 0.00113784
32 *42:13 *97:18 0
*RES
1 *431:Y *97:10 25.423 
2 *97:10 *97:18 45.6135 
3 *97:18 *471:C 20 
4 *97:10 *97:33 43.1827 
5 *97:33 *469:A 26.8804 
6 *97:33 *582:A 20 
*END

*D_NET *98 0.00324844
*CONN
*I *433:A2 I *D sg13g2_a21o_1
*I *432:Y O *D sg13g2_nand3_1
*CAP
1 *433:A2 1.06544e-05
2 *432:Y 0.000349096
3 *98:16 0.000776303
4 *98:8 0.00111474
5 *433:A2 *113:72 1.69409e-05
6 *98:8 *474:A1 1.54556e-05
7 *98:8 *144:6 0
8 *98:8 *178:45 8.02269e-05
9 *98:8 *229:59 0.000533353
10 *98:16 *112:20 0.000278339
11 *98:16 *162:12 0
12 *98:16 *178:68 7.33225e-05
*RES
1 *432:Y *98:8 43.5638 
2 *98:8 *98:16 48.6726 
3 *98:16 *433:A2 40.1133 
*END

*D_NET *99 0.00850714
*CONN
*I *477:A I *D sg13g2_nand3_1
*I *452:B I *D sg13g2_nand3_1
*I *443:C I *D sg13g2_nand3_1
*I *436:B I *D sg13g2_nand3_1
*I *469:B I *D sg13g2_nand3_1
*I *463:A I *D sg13g2_nand3_1
*I *434:Y O *D sg13g2_nor2b_2
*CAP
1 *477:A 0.000122227
2 *452:B 0
3 *443:C 0
4 *436:B 2.60565e-05
5 *469:B 0
6 *463:A 0
7 *434:Y 0.000290036
8 *99:69 8.37548e-05
9 *99:63 0.000388847
10 *99:55 0.000698892
11 *99:47 0.00105617
12 *99:32 0.000596914
13 *99:20 0.00054257
14 *99:14 0.000731647
15 *99:10 0.000509829
16 *436:B *436:C 4.77425e-05
17 *477:A *116:14 4.77425e-05
18 *477:A *214:10 4.77425e-05
19 *99:10 *436:C 0.000128576
20 *99:10 *133:60 0
21 *99:10 *178:6 0
22 *99:10 *218:26 7.51285e-05
23 *99:10 *229:14 0
24 *99:14 *436:C 4.77425e-05
25 *99:14 *218:26 0.000274297
26 *99:20 *436:C 0
27 *99:20 *101:8 0
28 *99:20 *132:12 0
29 *99:32 *436:C 5.30319e-05
30 *99:32 *436:A 0
31 *99:32 *218:26 0.00012816
32 *99:47 *133:10 0
33 *99:47 *218:26 0.000393736
34 *99:47 *236:8 0
35 *99:55 *471:D 0.000457165
36 *99:55 *513:A 0.000467221
37 *99:55 *107:109 6.99456e-05
38 *99:63 *471:B 0.000209844
39 *99:63 *471:D 0.00014499
40 *99:63 *107:109 1.54008e-05
41 *99:69 *444:A2 0
42 *99:69 *163:121 1.54008e-05
43 *469:A *436:B 4.77425e-05
44 *469:A *99:10 0
45 *469:A *99:14 0
46 *48:10 *99:47 0
47 *65:12 *477:A 0.000106064
48 *65:12 *99:47 0.00023464
49 *80:10 *99:69 4.75151e-05
50 *83:8 *99:47 0.000400365
*RES
1 *434:Y *99:10 42.8634 
2 *99:10 *99:14 22.0497 
3 *99:14 *99:20 45.2942 
4 *99:20 *463:A 20 
5 *99:14 *469:B 20 
6 *99:10 *99:32 0.5974 
7 *99:32 *436:B 40.3193 
8 *99:32 *99:47 6.9216 
9 *99:47 *99:55 24.6659 
10 *99:55 *99:63 43.4505 
11 *99:63 *99:69 40.7519 
12 *99:69 *443:C 20 
13 *99:55 *452:B 20 
14 *99:47 *477:A 41.4111 
*END

*D_NET *100 0.00276533
*CONN
*I *525:A I *D sg13g2_buf_8
*I *465:C I *D sg13g2_nand4_1
*I *435:Y O *D sg13g2_nor2b_2
*CAP
1 *525:A 2.77263e-05
2 *465:C 0
3 *435:Y 0.000457822
4 *100:16 0.000242868
5 *100:8 0.000728416
6 *525:A *157:21 0
7 *100:8 *503:A_N 0.000372155
8 *100:8 *157:94 0
9 *100:8 *185:53 0
10 *100:16 *465:D 4.77425e-05
11 *100:16 *531:A 0.00023464
12 *100:16 *112:12 0.00023464
13 *100:16 *121:12 0
14 *100:16 *121:73 8.01118e-05
15 *100:16 *185:53 0.000339211
*RES
1 *435:Y *100:8 24.5629 
2 *100:8 *100:16 43.3578 
3 *100:16 *465:C 20 
4 *100:8 *525:A 20.3502 
*END

*D_NET *101 0.00116446
*CONN
*I *437:A2 I *D sg13g2_a21o_1
*I *436:Y O *D sg13g2_nand3_1
*CAP
1 *437:A2 7.66406e-05
2 *436:Y 0.000444376
3 *101:8 0.000521016
4 *437:A2 *437:B1 0
5 *437:A2 *578:A 0.000122432
6 *101:8 *436:C 0
7 *101:8 *132:12 0
8 *79:8 *101:8 0
9 *99:20 *101:8 0
*RES
1 *436:Y *101:8 44.5526 
2 *101:8 *437:A2 40.8189 
*END

*D_NET *102 0.00428842
*CONN
*I *439:A2 I *D sg13g2_a21o_1
*I *438:Y O *D sg13g2_nand4_1
*CAP
1 *439:A2 0.000461322
2 *438:Y 0.000700444
3 *102:8 0.00116177
4 *439:A2 *255:RESET_B 1.54008e-05
5 *439:A2 *439:A1 0.000122574
6 *439:A2 *230:10 1.54008e-05
7 *102:8 *196:14 0.000939834
8 *549:A *439:A2 0.00043584
9 *572:A *439:A2 0.00043584
*RES
1 *438:Y *102:8 47.7662 
2 *102:8 *439:A2 45.1655 
*END

*D_NET *103 0.00915945
*CONN
*I *441:C I *D sg13g2_nand3_1
*I *458:C I *D sg13g2_nand3_1
*I *450:B I *D sg13g2_nand3_1
*I *475:A I *D sg13g2_nand3_1
*I *483:B I *D sg13g2_nand3_1
*I *467:B I *D sg13g2_nand3_1
*I *440:Y O *D sg13g2_nor2b_2
*CAP
1 *441:C 0
2 *458:C 0
3 *450:B 0
4 *475:A 3.05744e-05
5 *483:B 0.000642371
6 *467:B 0.000117362
7 *440:Y 0.000163913
8 *103:73 0.000403169
9 *103:56 0.000433744
10 *103:54 4.9261e-05
11 *103:37 0.000921962
12 *103:29 0.000290709
13 *103:25 0.000219932
14 *103:10 0.000276915
15 *103:8 0.000163913
16 *467:B *441:B 4.77425e-05
17 *467:B *467:C 9.07973e-05
18 *467:B *163:86 1.54008e-05
19 *475:A *512:A 7.46939e-05
20 *483:B *121:37 0.00166123
21 *483:B *136:8 0
22 *483:B *155:41 0.00018064
23 *483:B *193:8 0
24 *103:8 *185:66 0.000128248
25 *103:8 *207:14 0
26 *103:25 *441:B 0.000144841
27 *103:25 *207:97 0.000247106
28 *103:29 *489:S 0.000181695
29 *103:29 *178:18 0.000128247
30 *103:29 *229:24 0.000159096
31 *103:29 *229:30 0.000126358
32 *103:37 *121:37 5.30489e-05
33 *103:37 *155:41 0.00012632
34 *103:54 *476:A1 7.50938e-05
35 *103:54 *155:41 7.50938e-05
36 *103:73 *279:CLK 0.00014436
37 *103:73 *450:C 0.00014436
38 *103:73 *476:A1 0.000979577
39 *103:73 *512:A 7.9225e-05
40 *103:73 *109:8 0
41 *476:A2 *103:54 8.00842e-05
42 *63:12 *103:73 0
43 *86:14 *483:B 0
44 *86:14 *103:73 0.000502363
*RES
1 *440:Y *103:8 41.5862 
2 *103:8 *103:10 20 
3 *103:10 *467:B 21.1639 
4 *103:10 *103:25 2.0703 
5 *103:25 *103:29 21.339 
6 *103:29 *103:37 42.8634 
7 *103:37 *483:B 49.2494 
8 *103:37 *103:54 40.8858 
9 *103:54 *103:56 20 
10 *103:56 *475:A 20.4995 
11 *103:56 *103:73 46.0564 
12 *103:73 *450:B 20 
13 *103:29 *458:C 40 
14 *103:25 *441:C 20 
*END

*D_NET *104 0.000939579
*CONN
*I *442:A2 I *D sg13g2_a21o_1
*I *441:Y O *D sg13g2_nand3_1
*CAP
1 *442:A2 1.06117e-05
2 *441:Y 0.000377781
3 *104:10 0.000388393
4 *442:A2 *442:A1 1.68643e-05
5 *104:10 *489:S 0
6 *104:10 *112:37 0
7 *104:10 *178:45 0.000145929
8 *104:10 *229:44 0
*RES
1 *441:Y *104:10 43.5432 
2 *104:10 *442:A2 40.1133 
*END

*D_NET *105 0.00262437
*CONN
*I *444:A2 I *D sg13g2_a21o_1
*I *443:Y O *D sg13g2_nand3_1
*CAP
1 *444:A2 0.000919604
2 *443:Y 0.000919604
3 *444:A2 *293:D 0
4 *444:A2 *444:A1 4.77425e-05
5 *444:A2 *444:B1 0
6 *444:A2 *471:D 0.000177298
7 *444:A2 *480:A1 0
8 *444:A2 *480:B1 8.00842e-05
9 *444:A2 *534:A 0.000208227
10 *444:A2 *110:14 0
11 *444:A2 *196:70 8.00842e-05
12 *444:A2 *218:8 7.9225e-05
13 *444:A2 *240:31 0.000112499
14 *48:10 *444:A2 0
15 *65:12 *444:A2 0
16 *80:22 *444:A2 0
17 *99:69 *444:A2 0
*RES
1 *443:Y *444:A2 48.9507 
*END

*D_NET *106 0.00323845
*CONN
*I *446:A2 I *D sg13g2_a21o_1
*I *445:Y O *D sg13g2_nand4_1
*CAP
1 *446:A2 0
2 *445:Y 0.00106177
3 *106:10 0.00106177
4 *106:10 *445:C 0
5 *106:10 *445:A 0.000565908
6 *106:10 *455:B1 0
7 *106:10 *519:CLK 0
8 *106:10 *174:10 0
9 *106:10 *196:14 0.000501224
10 *106:10 *243:12 4.77702e-05
11 *97:10 *106:10 0
*RES
1 *445:Y *106:10 31.0107 
2 *106:10 *446:A2 20 
*END

*D_NET *107 0.0199378
*CONN
*I *479:C I *D sg13g2_nand4_1
*I *477:B I *D sg13g2_nand3_1
*I *452:C I *D sg13g2_nand3_1
*I *450:C I *D sg13g2_nand3_1
*I *473:B I *D sg13g2_nand3_1
*I *448:C I *D sg13g2_nand3_1
*I *475:B I *D sg13g2_nand3_1
*I *454:D I *D sg13g2_nand4_1
*I *447:Y O *D sg13g2_nor2b_2
*CAP
1 *479:C 0.000123999
2 *477:B 0.000124602
3 *452:C 0
4 *450:C 0.000275734
5 *473:B 0
6 *448:C 0.000190253
7 *475:B 0.000358722
8 *454:D 0
9 *447:Y 0.00085089
10 *107:109 0.000379486
11 *107:95 0.000870139
12 *107:89 0.000862699
13 *107:60 0.000653935
14 *107:56 0.0010379
15 *107:35 0.00116294
16 *107:31 0.00125915
17 *107:25 0.00120311
18 *107:16 0.000107336
19 *107:12 0.000881186
20 *448:C *473:C 1.54556e-05
21 *448:C *163:60 8.03146e-05
22 *448:C *163:75 0.000128769
23 *450:C *279:CLK 0
24 *450:C *450:A 0
25 *450:C *463:C 0
26 *450:C *126:8 0.000176741
27 *475:B *458:B 0
28 *475:B *475:C 0.000112541
29 *475:B *512:A 0.000112453
30 *475:B *121:14 0
31 *475:B *152:10 0.000235345
32 *475:B *229:30 0
33 *477:B *477:C 0.000144685
34 *477:B *214:10 0.000193005
35 *479:C *479:A 0.000175693
36 *479:C *218:18 0.000144542
37 *107:12 *519:RESET_B 0.000371925
38 *107:12 *158:8 0
39 *107:12 *160:33 0
40 *107:12 *161:31 0
41 *107:12 *161:37 0.000128248
42 *107:12 *196:35 0
43 *107:12 *196:39 0
44 *107:12 *229:8 0
45 *107:12 *229:14 0.000209756
46 *107:12 *240:10 0
47 *107:16 *454:C 4.77702e-05
48 *107:25 *454:C 1.54285e-05
49 *107:25 *196:39 0
50 *107:31 *463:C 7.9225e-05
51 *107:31 *466:B1 0
52 *107:31 *121:12 0
53 *107:31 *158:8 0.000982068
54 *107:31 *174:70 0
55 *107:31 *185:66 7.52149e-05
56 *107:31 *185:79 0.000176511
57 *107:31 *207:10 0
58 *107:35 *121:44 0
59 *107:35 *229:18 0
60 *107:56 *279:RESET_B 0
61 *107:56 *529:A 0
62 *107:56 *531:A 0
63 *107:56 *121:12 0
64 *107:56 *207:14 0.00023464
65 *107:60 *473:C 0.000144683
66 *107:60 *163:75 0.00053298
67 *107:60 *163:86 0.000274555
68 *107:60 *207:18 0.000712135
69 *107:89 *479:A 0.000305853
70 *107:89 *480:B1 0.000181192
71 *107:89 *158:8 0.000425502
72 *107:89 *158:12 0
73 *107:89 *163:10 0.000111828
74 *107:89 *174:70 0
75 *107:95 *293:RESET_B 0.000446352
76 *107:95 *133:10 0.00124225
77 *107:95 *218:18 0.000227595
78 *107:109 *471:B 0
79 *107:109 *513:A 0
80 *107:109 *116:14 0
81 *107:109 *133:25 0
82 *107:109 *178:133 0
83 *107:109 *214:10 0.000338868
84 *107:109 *245:12 0.000287343
85 *432:B *107:60 0
86 *537:A *107:12 0
87 *540:A *107:12 0
88 *579:A *107:31 0
89 *74:10 *107:89 0
90 *94:6 *107:12 0
91 *95:76 *448:C 1.54285e-05
92 *95:89 *448:C 0.000279069
93 *99:55 *107:109 6.99456e-05
94 *99:63 *107:109 1.54008e-05
95 *103:73 *450:C 0.00014436
*RES
1 *447:Y *107:12 48.6829 
2 *107:12 *107:16 20.3193 
3 *107:16 *454:D 20 
4 *107:16 *107:25 20.7519 
5 *107:25 *107:31 28.7653 
6 *107:31 *107:35 21.8334 
7 *107:35 *475:B 43.6462 
8 *107:35 *107:56 45.15 
9 *107:56 *107:60 25.7268 
10 *107:60 *448:C 22.2866 
11 *107:60 *473:B 20 
12 *107:31 *450:C 22.6986 
13 *107:25 *107:89 24.8719 
14 *107:89 *107:95 45.7886 
15 *107:95 *107:109 44.5938 
16 *107:109 *452:C 20 
17 *107:95 *477:B 21.4008 
18 *107:89 *479:C 21.4008 
*END

*D_NET *108 0.00196291
*CONN
*I *449:A2 I *D sg13g2_a21o_1
*I *448:Y O *D sg13g2_nand3_1
*CAP
1 *449:A2 0.000438077
2 *448:Y 0.000154654
3 *108:8 0.000592731
4 *449:A2 *492:A1 0
5 *449:A2 *144:6 0.000321407
6 *449:A2 *144:10 0.000207809
7 *449:A2 *178:45 0.000121251
8 *108:8 *112:20 0
9 *108:8 *229:59 0
10 *108:8 *238:12 0.000126984
11 *95:41 *108:8 0
*RES
1 *448:Y *108:8 41.339 
2 *108:8 *449:A2 44.7122 
*END

*D_NET *109 0.00082326
*CONN
*I *451:A2 I *D sg13g2_a21o_1
*I *450:Y O *D sg13g2_nand3_1
*CAP
1 *451:A2 1.18674e-05
2 *450:Y 0.000209545
3 *109:8 0.000221413
4 *451:A2 *178:102 1.69409e-05
5 *109:8 *142:10 0
6 *109:8 *155:49 0.000235141
7 *67:8 *109:8 0
8 *86:14 *109:8 0.000128353
9 *103:73 *109:8 0
*RES
1 *450:Y *109:8 42.3278 
2 *109:8 *451:A2 40.1133 
*END

*D_NET *110 0.0054151
*CONN
*I *453:A2 I *D sg13g2_a21o_1
*I *452:Y O *D sg13g2_nand3_1
*CAP
1 *453:A2 0
2 *452:Y 0.00165568
3 *110:22 0.000181303
4 *110:14 0.00183698
5 *110:14 *293:RESET_B 0.000176393
6 *110:14 *471:D 4.78769e-05
7 *110:14 *513:A 0
8 *110:14 *609:A 0.000435981
9 *110:14 *621:A 0
10 *110:14 *116:6 0
11 *110:14 *140:10 0.000371538
12 *110:14 *171:14 0
13 *110:14 *199:8 0
14 *110:22 *134:8 0
15 B[6] *110:14 0
16 *444:A2 *110:14 0
17 *27:8 *110:14 0.00017737
18 *48:10 *110:14 0
19 *65:12 *110:14 0.000531987
*RES
1 *452:Y *110:14 36.1481 
2 *110:14 *110:22 42.0033 
3 *110:22 *453:A2 20 
*END

*D_NET *111 0.00131804
*CONN
*I *455:A2 I *D sg13g2_a21o_1
*I *454:Y O *D sg13g2_nand4_1
*CAP
1 *455:A2 0.000372024
2 *454:Y 0.000372024
3 *455:A2 *454:A 0.000234903
4 *455:A2 *118:23 0.000339089
5 *455:A2 *174:10 0
6 *455:A2 *196:39 0
7 *97:10 *455:A2 0
8 *97:33 *455:A2 0
*RES
1 *454:Y *455:A2 43.9198 
*END

*D_NET *112 0.0160868
*CONN
*I *513:A I *D sg13g2_buf_8
*I *511:A I *D sg13g2_buf_8
*I *512:A I *D sg13g2_buf_8
*I *510:A I *D sg13g2_buf_8
*I *509:X O *D sg13g2_buf_8
*CAP
1 *513:A 0.00132805
2 *511:A 0.000924862
3 *512:A 0.000512108
4 *510:A 0
5 *509:X 0
6 *112:52 0.00225291
7 *112:50 0.000873829
8 *112:37 0.00110276
9 *112:20 0.0006988
10 *112:12 0.00204969
11 *112:4 0.00163407
12 *511:A *261:RESET_B 0
13 *511:A *261:D 0
14 *511:A *471:B 4.77425e-05
15 *511:A *163:121 0.000111761
16 *512:A *451:B1 0
17 *512:A *458:B 4.77282e-05
18 *512:A *475:C 0
19 *512:A *155:24 0
20 *512:A *155:41 0
21 *513:A *269:D 0.000226042
22 *513:A *471:B 0
23 *513:A *116:8 0
24 *513:A *116:14 0
25 *513:A *133:25 0
26 *513:A *214:10 0
27 *112:12 *529:A 0
28 *112:12 *531:A 0
29 *112:12 *157:94 0
30 *112:12 *159:21 0
31 *112:12 *207:10 4.77425e-05
32 *112:20 *229:75 0
33 *112:20 *238:12 0
34 *112:20 *249:8 0.000183737
35 *112:37 *441:B 0
36 *112:37 *441:A 4.77425e-05
37 *112:37 *458:B 0
38 *112:37 *468:A1 0
39 *112:37 *475:C 8.00426e-05
40 *112:37 *489:S 0
41 *112:37 *207:97 0
42 *112:50 *157:94 0
43 *112:50 *161:37 0
44 *112:50 *163:10 0
45 *112:50 *196:43 0
46 *112:50 *196:70 0
47 *112:50 *207:10 4.77425e-05
48 *112:50 *229:8 0
49 *112:50 *240:31 0
50 *468:A2 *112:37 0
51 *472:A2 *511:A 0.000306984
52 *475:B *512:A 0.000112453
53 *475:A *512:A 7.46939e-05
54 *476:A2 *512:A 0
55 *552:A *511:A 0
56 *566:A *512:A 0
57 *570:A *512:A 0
58 *572:A *511:A 0
59 *41:13 *112:50 0.00187897
60 *42:13 *112:12 0
61 *42:13 *112:50 0
62 *63:12 *512:A 0
63 *80:10 *511:A 0.000143571
64 *80:22 *511:A 0.000112684
65 *95:41 *112:20 0.000180645
66 *97:33 *112:50 0
67 *98:16 *112:20 0.000278339
68 *99:55 *513:A 0.000467221
69 *100:16 *112:12 0.00023464
70 *103:73 *512:A 7.9225e-05
71 *104:10 *112:37 0
72 *107:109 *513:A 0
73 *108:8 *112:20 0
74 *110:14 *513:A 0
*RES
1 *509:X *112:4 20 
2 *112:4 *112:12 47.0967 
3 *112:12 *112:20 47.8383 
4 *112:20 *510:A 20 
5 *112:12 *112:37 46.0976 
6 *112:37 *512:A 24.8931 
7 *112:4 *112:50 31.5463 
8 *112:50 *112:52 20 
9 *112:52 *511:A 28.5879 
10 *112:52 *513:A 32.8603 
*END

*D_NET *113 0.00898163
*CONN
*I *251:CLK I *D sg13g2_dfrbpq_1
*I *275:CLK I *D sg13g2_dfrbpq_1
*I *295:CLK I *D sg13g2_dfrbpq_1
*I *271:CLK I *D sg13g2_dfrbpq_1
*I *281:CLK I *D sg13g2_dfrbpq_1
*I *263:CLK I *D sg13g2_dfrbpq_1
*I *287:CLK I *D sg13g2_dfrbpq_1
*I *514:A I *D sg13g2_buf_1
*I *510:X O *D sg13g2_buf_8
*CAP
1 *251:CLK 0
2 *275:CLK 0.000348881
3 *295:CLK 0
4 *271:CLK 0.000188524
5 *281:CLK 0.000375807
6 *263:CLK 0
7 *287:CLK 0
8 *514:A 0.000292757
9 *510:X 0
10 *113:72 0.0014034
11 *113:48 0.000356875
12 *113:34 0.00060038
13 *113:27 0.000496911
14 *113:21 0.000440688
15 *113:8 0.000756722
16 *113:6 0.00151848
17 *275:CLK *251:RESET_B 0
18 *275:CLK *162:21 0
19 *275:CLK *176:17 0
20 *281:CLK *545:A 0.000242186
21 *281:CLK *155:6 0
22 *281:CLK *217:10 0
23 *514:A *482:B1 0
24 *514:A *601:A 0
25 *113:8 *482:B1 0
26 *113:8 *249:8 0
27 *113:27 *583:A 0.000144929
28 *113:27 *207:50 0
29 *113:34 *207:50 0.000144771
30 *113:34 *217:10 0
31 *113:48 *207:50 0.00020871
32 *113:72 *461:C 4.77425e-05
33 *113:72 *482:B1 0
34 *113:72 *547:A 0.000240607
35 *113:72 *557:A 0
36 *113:72 *144:10 0.00011101
37 *113:72 *144:37 0
38 *113:72 *162:21 0
39 *113:72 *163:60 0.000129108
40 *113:72 *185:24 0
41 *113:72 *229:75 0.000285318
42 *113:72 *229:85 0
43 *113:72 *249:8 0
44 *433:A2 *113:72 1.69409e-05
45 *482:A2 *271:CLK 0.000274527
46 *482:A2 *113:27 0.000178913
47 *482:A2 *113:48 0
48 *23:12 *514:A 0
49 *44:10 *113:72 0
50 *68:10 *113:72 0.000177442
51 *72:12 *113:72 0
52 *95:67 *271:CLK 0
*RES
1 *510:X *113:6 40 
2 *113:6 *113:8 4.0582 
3 *113:8 *514:A 42.8634 
4 *113:8 *113:21 20 
5 *113:21 *113:27 3.1827 
6 *113:27 *287:CLK 20 
7 *113:27 *113:34 2.266 
8 *113:34 *263:CLK 20 
9 *113:34 *281:CLK 23.9964 
10 *113:21 *113:48 1.6171 
11 *113:48 *271:CLK 22.1836 
12 *113:48 *295:CLK 20 
13 *113:6 *113:72 30.3939 
14 *113:72 *275:CLK 23.8522 
15 *113:72 *251:CLK 20 
*END

*D_NET *114 0.00773935
*CONN
*I *285:CLK I *D sg13g2_dfrbpq_1
*I *261:CLK I *D sg13g2_dfrbpq_1
*I *255:CLK I *D sg13g2_dfrbpq_1
*I *519:CLK I *D sg13g2_dfrbpq_2
*I *517:CLK I *D sg13g2_dfrbpq_1
*I *521:CLK I *D sg13g2_dfrbpq_2
*I *523:CLK I *D sg13g2_dfrbpq_2
*I *511:X O *D sg13g2_buf_8
*CAP
1 *285:CLK 0.000221406
2 *261:CLK 0
3 *255:CLK 0.00022464
4 *519:CLK 0.000431503
5 *517:CLK 0
6 *521:CLK 0
7 *523:CLK 0
8 *511:X 0
9 *114:71 0.000751302
10 *114:56 0.00111642
11 *114:30 0.000273972
12 *114:22 0.00061132
13 *114:14 0.000546261
14 *114:8 0.00088292
15 *114:6 0.000604392
16 *255:CLK *145:10 0
17 *285:CLK *485:A 0
18 *285:CLK *180:24 0
19 *519:CLK *119:12 1.54008e-05
20 *519:CLK *119:21 0
21 *114:8 *174:10 0.000215263
22 *114:8 *174:14 0.000238126
23 *114:8 *196:14 0.00032371
24 *114:14 *438:A 0
25 *114:14 *517:RESET_B 0
26 *114:14 *120:15 0.000274209
27 *114:14 *174:14 0.000237686
28 *114:14 *196:14 0.000237643
29 *114:22 *517:RESET_B 0
30 *114:22 *120:15 0.000339583
31 *114:22 *149:10 0
32 *114:30 *120:15 0
33 *114:30 *149:10 0
34 *114:71 *485:A 0
35 *114:71 *178:141 0
36 *114:71 *180:24 0
37 D[4] *114:71 0
38 *472:A2 *255:CLK 0
39 *97:10 *519:CLK 0.000193585
40 *106:10 *519:CLK 0
*RES
1 *511:X *114:6 40 
2 *114:6 *114:8 3.3166 
3 *114:8 *114:14 22.9252 
4 *114:14 *114:22 44.0994 
5 *114:22 *114:30 42.9252 
6 *114:30 *523:CLK 20 
7 *114:22 *521:CLK 20 
8 *114:14 *517:CLK 20 
9 *114:8 *519:CLK 43.9964 
10 *114:6 *114:56 3.3166 
11 *114:56 *255:CLK 41.8334 
12 *114:56 *114:71 25.0882 
13 *114:71 *261:CLK 20 
14 *114:71 *285:CLK 22.4308 
*END

*D_NET *115 0.00974507
*CONN
*I *265:CLK I *D sg13g2_dfrbpq_1
*I *289:CLK I *D sg13g2_dfrbpq_1
*I *277:CLK I *D sg13g2_dfrbpq_1
*I *279:CLK I *D sg13g2_dfrbpq_2
*I *515:A I *D sg13g2_buf_1
*I *273:CLK I *D sg13g2_dfrbpq_1
*I *297:CLK I *D sg13g2_dfrbpq_1
*I *257:CLK I *D sg13g2_dfrbpq_1
*I *512:X O *D sg13g2_buf_8
*CAP
1 *265:CLK 0.000220457
2 *289:CLK 0
3 *277:CLK 0.000635445
4 *279:CLK 0.000617581
5 *515:A 5.1064e-05
6 *273:CLK 3.43728e-05
7 *297:CLK 0
8 *257:CLK 0.000654494
9 *512:X 0.000148846
10 *115:78 0.000246931
11 *115:52 0.00148269
12 *115:18 0.000808322
13 *115:16 0.000481894
14 *115:12 0.000708202
15 *115:10 0.000593113
16 *115:8 0.00017532
17 *257:CLK *459:A1 0
18 *257:CLK *562:A 0
19 *257:CLK *565:A 0.000306984
20 *257:CLK *188:40 3.23417e-05
21 *265:CLK *178:102 0.000339556
22 *277:CLK *277:RESET_B 0
23 *277:CLK *487:A1 0
24 *277:CLK *553:A 0.000373299
25 *277:CLK *133:60 0
26 *277:CLK *133:73 0
27 *277:CLK *158:37 0
28 *277:CLK *177:10 0
29 *277:CLK *183:10 0.000128248
30 *279:CLK *450:A 0
31 *279:CLK *569:A 0
32 *279:CLK *126:8 0
33 *279:CLK *142:10 0
34 *279:CLK *178:102 0
35 *515:A *273:D 1.54008e-05
36 *515:A *289:RESET_B 0
37 *515:A *188:40 0
38 *115:8 *178:102 0.000177299
39 *115:16 *175:21 0
40 *115:16 *188:40 0
41 *115:16 *210:10 0.000503849
42 *115:18 *188:40 0.000112648
43 *115:78 *178:102 4.77702e-05
44 *450:C *279:CLK 0
45 *459:A2 *257:CLK 0.000266422
46 *464:A2 *277:CLK 0.000438154
47 *570:A *265:CLK 0
48 *570:A *115:8 0
49 *570:A *115:78 0
50 *579:A *279:CLK 0
51 *55:12 *257:CLK 0
52 *57:10 *277:CLK 0
53 *103:73 *279:CLK 0.00014436
*RES
1 *512:X *115:8 21.5347 
2 *115:8 *115:10 20 
3 *115:10 *115:12 4.3054 
4 *115:12 *115:16 23.811 
5 *115:16 *115:18 1.6171 
6 *115:18 *257:CLK 26.6126 
7 *115:18 *297:CLK 20 
8 *115:16 *273:CLK 20.3193 
9 *115:12 *515:A 40.5356 
10 *115:10 *115:52 2.8222 
11 *115:52 *279:CLK 45.8607 
12 *115:52 *277:CLK 47.8795 
13 *115:8 *115:78 0.3193 
14 *115:78 *289:CLK 20 
15 *115:78 *265:CLK 22.266 
*END

*D_NET *116 0.0108231
*CONN
*I *516:A I *D sg13g2_buf_1
*I *267:CLK I *D sg13g2_dfrbpq_1
*I *291:CLK I *D sg13g2_dfrbpq_1
*I *253:CLK I *D sg13g2_dfrbpq_1
*I *283:CLK I *D sg13g2_dfrbpq_1
*I *259:CLK I *D sg13g2_dfrbpq_1
*I *269:CLK I *D sg13g2_dfrbpq_1
*I *293:CLK I *D sg13g2_dfrbpq_1
*I *513:X O *D sg13g2_buf_8
*CAP
1 *516:A 0.000174037
2 *267:CLK 0
3 *291:CLK 0.000208216
4 *253:CLK 0.00038841
5 *283:CLK 0
6 *259:CLK 0.000446455
7 *269:CLK 0.000204569
8 *293:CLK 0
9 *513:X 0
10 *116:54 0.000639594
11 *116:52 0.00036611
12 *116:25 0.000869338
13 *116:14 0.00111731
14 *116:8 0.00111733
15 *116:6 0.000593949
16 *116:4 0.000226507
17 *253:CLK *487:A0 0.000502289
18 *253:CLK *133:60 0.000209871
19 *253:CLK *133:73 0.000942388
20 *253:CLK *164:21 0.000341621
21 *259:CLK *495:A1 1.54556e-05
22 *259:CLK *604:A 0
23 *259:CLK *180:10 0.000274642
24 *259:CLK *180:24 0
25 *259:CLK *194:10 0.00027444
26 *259:CLK *204:8 0
27 *269:CLK *495:A1 0
28 *269:CLK *133:25 0
29 *291:CLK *494:S 0
30 *516:A *171:14 0
31 *516:A *214:10 0.000209844
32 *116:6 *171:14 0
33 *116:8 *214:10 0
34 *116:14 *178:133 0
35 *116:14 *214:10 0
36 *116:14 *245:12 0
37 *116:25 *178:133 0
38 *116:25 *245:12 0
39 *116:52 *591:A 0.000106064
40 *116:52 *621:A 0.000372797
41 *116:52 *133:73 0.000129077
42 *116:52 *171:8 0.00023547
43 *116:52 *191:8 0
44 *116:52 *226:8 0
45 *116:54 *621:A 7.52158e-05
46 *116:54 *133:73 0.000235556
47 *116:54 *164:21 0.000159839
48 *477:A *116:14 4.77425e-05
49 *513:A *116:8 0
50 *513:A *116:14 0
51 *568:A *291:CLK 0.000339008
52 *107:109 *116:14 0
53 *110:14 *116:6 0
*RES
1 *513:X *116:4 20 
2 *116:4 *116:6 0.5356 
3 *116:6 *116:8 1.8334 
4 *116:8 *116:14 27.2512 
5 *116:14 *293:CLK 40 
6 *116:14 *116:25 22.0806 
7 *116:25 *269:CLK 21.8334 
8 *116:25 *259:CLK 24.6968 
9 *116:8 *283:CLK 20 
10 *116:6 *116:52 24.5526 
11 *116:52 *116:54 1.0918 
12 *116:54 *253:CLK 46.489 
13 *116:54 *291:CLK 42.266 
14 *116:52 *267:CLK 40 
15 *116:4 *516:A 21.9673 
*END

*D_NET *117 0.00365295
*CONN
*I *577:A I *D sg13g2_dlygate4sd3_1
*I *536:A I *D sg13g2_buf_1
*I *517:Q O *D sg13g2_dfrbpq_1
*CAP
1 *577:A 0.000488053
2 *536:A 0.00100075
3 *517:Q 0
4 *117:6 0.0014888
5 *536:A *505:B1 0
6 *536:A *121:121 0.00014413
7 *536:A *147:27 0
8 *536:A *161:12 0
9 *536:A *229:101 0
10 *577:A *255:RESET_B 0.000241425
11 *577:A *439:A1 0.000144655
12 *577:A *157:65 0.00014514
13 *506:A2 *536:A 0
14 *549:A *577:A 0
*RES
1 *517:Q *117:6 40 
2 *117:6 *536:A 49.7335 
3 *117:6 *577:A 45.2324 
*END

*D_NET *118 0.00593838
*CONN
*I *471:A I *D sg13g2_nand4_1
*I *479:A I *D sg13g2_nand4_1
*I *454:A I *D sg13g2_nand4_1
*I *580:A I *D sg13g2_dlygate4sd3_1
*I *519:Q O *D sg13g2_dfrbpq_2
*CAP
1 *471:A 0.000277413
2 *479:A 0.000601945
3 *454:A 0.000213473
4 *580:A 2.77263e-05
5 *519:Q 0.000220074
6 *118:23 0.00119568
7 *118:17 0.000813247
8 *118:6 0.000403375
9 *454:A *196:39 0
10 *479:A *533:A 0
11 *479:A *163:14 0
12 *118:6 *157:65 0
13 *118:6 *163:16 0
14 *118:17 *444:B1 0
15 *118:17 *163:14 0
16 *118:23 *163:14 0
17 *118:23 *196:39 0
18 *455:A2 *454:A 0.000234903
19 *455:A2 *118:23 0.000339089
20 *469:A *454:A 0.000102287
21 *478:A2 *479:A 0
22 *479:C *479:A 0.000175693
23 *41:13 *471:A 0
24 *42:13 *471:A 0.000584906
25 *42:13 *118:23 0.000395177
26 *48:10 *479:A 0
27 *80:10 *471:A 4.75442e-05
28 *97:18 *471:A 0
29 *97:18 *118:23 0
30 *107:89 *479:A 0.000305853
*RES
1 *519:Q *118:6 21.6171 
2 *118:6 *580:A 20.3502 
3 *118:6 *118:17 21.1845 
4 *118:17 *118:23 24.3157 
5 *118:23 *454:A 22.6574 
6 *118:23 *479:A 26.1594 
7 *118:17 *471:A 43.1415 
*END

*D_NET *119 0.003956
*CONN
*I *581:A I *D sg13g2_dlygate4sd3_1
*I *447:B_N I *D sg13g2_nor2b_2
*I *573:A I *D sg13g2_dlygate4sd3_1
*I *521:Q O *D sg13g2_dfrbpq_2
*CAP
1 *581:A 0.000234876
2 *447:B_N 0.000195695
3 *573:A 0
4 *521:Q 0.000462294
5 *119:21 0.000707167
6 *119:12 0.000738889
7 *447:B_N *163:33 0.000509382
8 *581:A *445:D 4.77699e-05
9 *581:A *163:16 3.23417e-05
10 *581:A *163:33 0.000592746
11 *581:A *174:10 8.01116e-05
12 *119:12 *445:A 0
13 *119:12 *120:15 0
14 *119:21 *120:15 0.000339326
15 *519:CLK *119:12 1.54008e-05
16 *519:CLK *119:21 0
*RES
1 *521:Q *119:12 24.6144 
2 *119:12 *573:A 20 
3 *119:12 *119:21 22.6986 
4 *119:21 *447:B_N 42.3278 
5 *119:21 *581:A 43.3578 
*END

*D_NET *120 0.00309037
*CONN
*I *431:A I *D sg13g2_nor2_2
*I *447:A I *D sg13g2_nor2b_2
*I *576:A I *D sg13g2_dlygate4sd3_1
*I *523:Q O *D sg13g2_dfrbpq_2
*CAP
1 *431:A 0
2 *447:A 6.68694e-05
3 *576:A 0.00022957
4 *523:Q 0
5 *120:15 0.000839054
6 *120:4 0.00100175
7 *120:15 *445:A 0
8 *120:15 *196:6 0
9 *114:14 *120:15 0.000274209
10 *114:22 *120:15 0.000339583
11 *114:30 *120:15 0
12 *119:12 *120:15 0
13 *119:21 *120:15 0.000339326
*RES
1 *523:Q *120:4 20 
2 *120:4 *576:A 22.7089 
3 *120:4 *120:15 8.5387 
4 *120:15 *447:A 20.8446 
5 *120:15 *431:A 20 
*END

*D_NET *121 0.0183101
*CONN
*I *504:B I *D sg13g2_nand3b_1
*I *438:D I *D sg13g2_nand4_1
*I *456:C I *D sg13g2_nand3_1
*I *481:B I *D sg13g2_nand3_1
*I *436:C I *D sg13g2_nand3_1
*I *463:B I *D sg13g2_nand3_1
*I *483:A I *D sg13g2_nand3_1
*I *458:B I *D sg13g2_nand3_1
*I *525:X O *D sg13g2_buf_8
*CAP
1 *504:B 8.61608e-05
2 *438:D 0
3 *456:C 3.61129e-05
4 *481:B 0.000859494
5 *436:C 0.000602384
6 *463:B 0.00019267
7 *483:A 0
8 *458:B 0.000203597
9 *525:X 0.000849366
10 *121:121 0.000541787
11 *121:91 0.00146342
12 *121:85 0.00123047
13 *121:79 0.000762439
14 *121:73 0.000783194
15 *121:44 0.00101083
16 *121:37 0.000696095
17 *121:14 0.00128353
18 *121:12 0.00122119
19 *436:C *436:A 0
20 *436:C *229:18 0
21 *458:B *468:A1 8.00842e-05
22 *458:B *237:10 0
23 *463:B *437:B1 0
24 *463:B *463:C 0.000339583
25 *481:B *481:C 0
26 *481:B *130:8 0
27 *481:B *173:40 0
28 *481:B *212:10 0.000454452
29 *504:B *149:30 0
30 *121:12 *450:A 0.000128634
31 *121:12 *174:49 0.000306869
32 *121:12 *229:24 0.000112418
33 *121:14 *476:A1 0
34 *121:14 *152:10 0.000234224
35 *121:14 *155:41 0
36 *121:14 *229:30 0
37 *121:37 *124:8 0.000929578
38 *121:37 *193:8 0
39 *121:37 *207:39 0
40 *121:37 *231:8 0.000144772
41 *121:37 *237:10 0
42 *121:44 *476:A1 0
43 *121:44 *229:18 0
44 *121:73 *174:49 0
45 *121:73 *185:53 0
46 *121:85 *144:37 0
47 *121:85 *149:30 0.000111761
48 *121:91 *507:B1 0.000107631
49 *121:91 *547:A 0
50 *121:91 *130:8 0
51 *121:91 *144:37 0.000400195
52 *121:91 *144:45 0
53 *121:91 *149:30 0.000176442
54 *121:91 *215:8 0.000183935
55 *121:91 *229:85 0
56 *121:121 *517:RESET_B 7.94189e-05
57 *121:121 *211:12 0
58 *121:121 *229:101 1.54285e-05
59 *436:B *436:C 4.77425e-05
60 *456:B *456:C 1.54008e-05
61 *464:A2 *463:B 0
62 *475:B *458:B 0
63 *475:B *121:14 0
64 *482:A2 *481:B 0
65 *483:B *121:37 0.00166123
66 *502:C *504:B 0
67 *512:A *458:B 4.77282e-05
68 *536:A *121:121 0.00014413
69 *579:A *121:12 0
70 *68:10 *121:91 0
71 *68:10 *121:121 0
72 *87:37 *504:B 7.46398e-05
73 *87:37 *121:85 2.16289e-05
74 *95:26 *121:85 0
75 *95:67 *481:B 0.000306896
76 *95:67 *121:91 0
77 *99:10 *436:C 0.000128576
78 *99:14 *436:C 4.77425e-05
79 *99:20 *436:C 0
80 *99:32 *436:C 5.30319e-05
81 *100:16 *121:12 0
82 *100:16 *121:73 8.01118e-05
83 *101:8 *436:C 0
84 *103:37 *121:37 5.30489e-05
85 *107:31 *121:12 0
86 *107:35 *121:44 0
87 *107:56 *121:12 0
88 *112:37 *458:B 0
*RES
1 *525:X *121:12 46.2109 
2 *121:12 *121:14 3.5638 
3 *121:14 *458:B 41.9364 
4 *121:14 *121:37 31.1446 
5 *121:37 *483:A 20 
6 *121:12 *121:44 2.0806 
7 *121:44 *463:B 42.266 
8 *121:44 *436:C 46.5714 
9 *525:X *121:73 42.0497 
10 *121:73 *121:79 46.592 
11 *121:79 *121:85 21.3493 
12 *121:85 *121:91 26.2315 
13 *121:91 *481:B 48.1885 
14 *121:91 *456:C 40.3193 
15 *121:85 *121:121 45.2736 
16 *121:121 *438:D 20 
17 *121:79 *504:B 41.0197 
*END

*D_NET *122 0.001069
*CONN
*I *578:A I *D sg13g2_dlygate4sd3_1
*I *527:A I *D sg13g2_buf_8
*I *279:Q O *D sg13g2_dfrbpq_2
*CAP
1 *578:A 0.000246213
2 *527:A 0.000219448
3 *279:Q 0.000465661
4 *527:A *437:B1 1.52441e-05
5 *527:A *133:60 0
6 *527:A *157:94 0
7 *527:A *178:14 0
8 *578:A *437:B1 0
9 *578:A *133:60 0
10 *437:A2 *578:A 0.000122432
11 *74:10 *527:A 0
*RES
1 *279:Q *527:A 42.0703 
2 *279:Q *578:A 42.5338 
*END

*D_NET *123 0.000114111
*CONN
*I *285:D I *D sg13g2_dfrbpq_1
*I *549:X O *D sg13g2_dlygate4sd3_1
*CAP
1 *285:D 0
2 *549:X 5.70553e-05
3 *123:8 5.70553e-05
*RES
1 *549:X *123:8 40.5974 
2 *123:8 *285:D 40 
*END

*D_NET *124 0.00279227
*CONN
*I *442:A1 I *D sg13g2_a21o_1
*I *550:X O *D sg13g2_dlygate4sd3_1
*CAP
1 *442:A1 0.000410742
2 *550:X 0.000279433
3 *124:8 0.000690175
4 *442:A1 *442:B1 1.54008e-05
5 *442:A1 *489:S 0
6 *442:A1 *574:A 0
7 *442:A1 *155:20 0.000274058
8 *442:A1 *229:44 0
9 *442:A1 *237:10 0.000176018
10 *124:8 *155:20 0
11 *442:A2 *442:A1 1.68643e-05
12 *73:8 *124:8 0
13 *121:37 *124:8 0.000929578
*RES
1 *550:X *124:8 44.3054 
2 *124:8 *442:A1 44.2642 
*END

*D_NET *125 0.000295501
*CONN
*I *464:A1 I *D sg13g2_a21o_1
*I *551:X O *D sg13g2_dlygate4sd3_1
*CAP
1 *464:A1 0
2 *551:X 5.71106e-05
3 *125:8 5.71106e-05
4 *125:8 *158:37 0.00018128
*RES
1 *551:X *125:8 40.8446 
2 *125:8 *464:A1 40 
*END

*D_NET *126 0.0037163
*CONN
*I *476:A1 I *D sg13g2_a21o_1
*I *553:X O *D sg13g2_dlygate4sd3_1
*CAP
1 *476:A1 0.000537115
2 *553:X 0.000440408
3 *126:8 0.000977522
4 *476:A1 *155:24 1.54008e-05
5 *476:A1 *155:41 4.77425e-05
6 *126:8 *253:RESET_B 0
7 *126:8 *463:C 0.000176741
8 *126:8 *569:A 0.000209871
9 *253:D *126:8 0
10 *279:CLK *126:8 0
11 *450:C *126:8 0.000176741
12 *464:A2 *126:8 0
13 *476:A2 *476:A1 8.00842e-05
14 *86:14 *476:A1 0
15 *103:54 *476:A1 7.50938e-05
16 *103:73 *476:A1 0.000979577
17 *121:14 *476:A1 0
18 *121:44 *476:A1 0
*RES
1 *553:X *126:8 44.6453 
2 *126:8 *476:A1 46.6435 
*END

*D_NET *127 0.00105612
*CONN
*I *289:D I *D sg13g2_dfrbpq_1
*I *554:X O *D sg13g2_dlygate4sd3_1
*CAP
1 *289:D 0.000359716
2 *554:X 0.000359716
3 *289:D *273:D 0.000336689
4 *566:A *289:D 0
*RES
1 *554:X *289:D 44.0479 
*END

*D_NET *128 0.0021535
*CONN
*I *470:A1 I *D sg13g2_a21o_1
*I *555:X O *D sg13g2_dlygate4sd3_1
*CAP
1 *470:A1 4.69792e-05
2 *555:X 0.000925396
3 *128:10 0.000972375
4 *470:A1 *478:A1 0
5 *470:A1 *158:29 8.00842e-05
6 *128:10 *604:A 0
7 *128:10 *140:10 0
8 *128:10 *180:6 0
9 *128:10 *180:44 0.000128663
10 *48:10 *128:10 0
11 *60:12 *128:10 0
*RES
1 *555:X *128:10 48.9507 
2 *128:10 *470:A1 40.5356 
*END

*D_NET *129 0.000723297
*CONN
*I *283:D I *D sg13g2_dfrbpq_1
*I *556:X O *D sg13g2_dlygate4sd3_1
*CAP
1 *283:D 0.000361648
2 *556:X 0.000361648
3 *283:D *283:RESET_B 0
4 *283:D *140:10 0
5 *283:D *158:29 0
6 *60:12 *283:D 0
*RES
1 *556:X *283:D 43.4608 
*END

*D_NET *130 0.00202106
*CONN
*I *462:A1 I *D sg13g2_a21o_1
*I *557:X O *D sg13g2_dlygate4sd3_1
*CAP
1 *462:A1 0.000360546
2 *557:X 0.000455201
3 *130:8 0.000815747
4 *462:A1 *457:A1 0
5 *462:A1 *457:B1 0
6 *462:A1 *585:A 0
7 *462:A1 *173:40 0
8 *462:A1 *241:10 0
9 *130:8 *144:45 0
10 *130:8 *144:47 0
11 *130:8 *173:40 0.00029079
12 *251:D *462:A1 0
13 *457:A2 *462:A1 1.70012e-05
14 *462:A2 *462:A1 8.17725e-05
15 *481:B *130:8 0
16 *72:12 *130:8 0
17 *121:91 *130:8 0
*RES
1 *557:X *130:8 44.0582 
2 *130:8 *462:A1 43.3475 
*END

*D_NET *131 0.00160154
*CONN
*I *433:A1 I *D sg13g2_a21o_1
*I *558:X O *D sg13g2_dlygate4sd3_1
*CAP
1 *433:A1 0
2 *558:X 0.000155198
3 *131:8 0.000155198
4 *131:8 *144:45 0.000718198
5 *131:8 *162:12 0
6 *131:8 *162:29 0.000341206
7 *131:8 *178:68 0.000231739
*RES
1 *558:X *131:8 43.3166 
2 *131:8 *433:A1 40 
*END

*D_NET *132 0.00134077
*CONN
*I *437:A1 I *D sg13g2_a21o_1
*I *559:X O *D sg13g2_dlygate4sd3_1
*CAP
1 *437:A1 5.73806e-05
2 *559:X 0.000613005
3 *132:12 0.000670386
4 *132:12 *267:RESET_B 0
5 *464:A2 *437:A1 0
6 *469:A *132:12 0
7 *568:A *132:12 0
8 *79:8 *132:12 0
9 *99:20 *132:12 0
10 *101:8 *132:12 0
*RES
1 *559:X *132:12 46.0873 
2 *132:12 *437:A1 40.5356 
*END

*D_NET *133 0.0149168
*CONN
*I *494:S I *D sg13g2_mux2_1
*I *487:S I *D sg13g2_mux2_1
*I *491:S I *D sg13g2_mux2_1
*I *485:A I *D sg13g2_or2_1
*I *495:S I *D sg13g2_mux2_1
*I *490:S I *D sg13g2_mux2_1
*I *527:X O *D sg13g2_buf_8
*CAP
1 *494:S 0.000331213
2 *487:S 0
3 *491:S 0
4 *485:A 0.00111387
5 *495:S 0
6 *490:S 0.000201945
7 *527:X 2.77263e-05
8 *133:73 0.000839971
9 *133:60 0.00127053
10 *133:34 0.00132714
11 *133:25 0.000713098
12 *133:10 0.00139779
13 *133:6 0.0014855
14 *485:A *261:RESET_B 0
15 *485:A *261:D 0
16 *485:A *491:A0 0
17 *485:A *491:A1 0
18 *485:A *571:A 4.77425e-05
19 *485:A *180:24 0
20 *485:A *181:35 0
21 *490:S *477:C 0
22 *490:S *204:8 0
23 *494:S *453:B1 0.000291726
24 *494:S *158:29 0.000274297
25 *133:10 *293:RESET_B 0
26 *133:10 *436:A 0
27 *133:10 *178:133 0.00225368
28 *133:10 *185:79 0
29 *133:10 *218:18 0
30 *133:10 *229:18 0.000394981
31 *133:25 *495:A1 0
32 *133:25 *178:133 0.000106392
33 *133:34 *172:25 0
34 *133:34 *180:24 0
35 *133:60 *437:B1 0
36 *133:60 *526:A 0
37 *133:60 *178:6 0
38 *133:60 *218:26 0
39 *133:73 *158:37 0
40 *133:73 *191:8 0
41 *253:CLK *133:60 0.000209871
42 *253:CLK *133:73 0.000942388
43 *269:CLK *133:25 0
44 *277:CLK *133:60 0
45 *277:CLK *133:73 0
46 *285:CLK *485:A 0
47 *291:CLK *494:S 0
48 *464:A2 *133:60 0
49 *472:A2 *485:A 0
50 *513:A *133:25 0
51 *527:A *133:60 0
52 *552:A *485:A 8.00842e-05
53 *552:A *133:34 0
54 *568:A *494:S 0
55 *578:A *133:60 0
56 *74:10 *133:10 0
57 *83:8 *133:10 0
58 *99:10 *133:60 0
59 *99:47 *133:10 0
60 *107:95 *133:10 0.00124225
61 *107:109 *133:25 0
62 *114:71 *485:A 0
63 *116:52 *133:73 0.000129077
64 *116:54 *133:73 0.000235556
*RES
1 *527:X *133:6 20.3502 
2 *133:6 *133:10 31.9686 
3 *133:10 *490:S 41.6171 
4 *133:10 *133:25 25.2427 
5 *133:25 *495:S 20 
6 *133:25 *133:34 2.1836 
7 *133:34 *485:A 31.948 
8 *133:34 *491:S 20 
9 *133:6 *133:60 7.2365 
10 *133:60 *487:S 20 
11 *133:60 *133:73 46.3551 
12 *133:73 *494:S 23.7801 
*END

*D_NET *134 0.000864619
*CONN
*I *453:A1 I *D sg13g2_a21o_1
*I *560:X O *D sg13g2_dlygate4sd3_1
*CAP
1 *453:A1 0.000143145
2 *560:X 0.000167986
3 *134:8 0.000311132
4 *453:A1 *453:B1 0.000242355
5 *453:A1 *621:A 0
6 *134:8 *184:21 0
7 *2:8 *453:A1 0
8 *110:22 *134:8 0
*RES
1 *560:X *134:8 41.8334 
2 *134:8 *453:A1 41.6171 
*END

*D_NET *135 0.00153148
*CONN
*I *267:D I *D sg13g2_dfrbpq_1
*I *561:X O *D sg13g2_dlygate4sd3_1
*CAP
1 *267:D 0.000628448
2 *561:X 0.000628448
3 *267:D *267:RESET_B 0
4 *267:D *291:RESET_B 0
5 *267:D *291:D 0.000274582
6 *267:D *487:A1 0
*RES
1 *561:X *267:D 46.7053 
*END

*D_NET *136 0.000794365
*CONN
*I *459:A1 I *D sg13g2_a21o_1
*I *562:X O *D sg13g2_dlygate4sd3_1
*CAP
1 *459:A1 0.000128604
2 *562:X 0.000103246
3 *136:8 0.000231851
4 *459:A1 *459:B1 0.000208968
5 *257:CLK *459:A1 0
6 *459:A2 *459:A1 0.000121696
7 *483:B *136:8 0
8 *86:14 *136:8 0
*RES
1 *562:X *136:8 40.8446 
2 *136:8 *459:A1 41.4008 
*END

*D_NET *137 0.00120287
*CONN
*I *273:D I *D sg13g2_dfrbpq_1
*I *564:X O *D sg13g2_dlygate4sd3_1
*CAP
1 *273:D 0.00042539
2 *564:X 0.00042539
3 *273:D *297:D 0
4 *273:D *562:A 0
5 *273:D *188:40 0
6 *289:D *273:D 0.000336689
7 *515:A *273:D 1.54008e-05
*RES
1 *564:X *273:D 44.6453 
*END

*D_NET *138 0.00251997
*CONN
*I *484:A1 I *D sg13g2_a21o_1
*I *565:X O *D sg13g2_dlygate4sd3_1
*CAP
1 *484:A1 3.64002e-05
2 *565:X 0.000451537
3 *138:8 0.000487937
4 *484:A1 *155:49 1.54008e-05
5 *138:8 *142:10 0.000234224
6 *55:12 *138:8 0.000127904
7 *63:12 *138:8 0.000450917
8 *67:8 *138:8 0.000715647
9 *86:14 *138:8 0
*RES
1 *565:X *138:8 47.0246 
2 *138:8 *484:A1 40.3193 
*END

*D_NET *139 0.000164609
*CONN
*I *297:D I *D sg13g2_dfrbpq_1
*I *566:X O *D sg13g2_dlygate4sd3_1
*CAP
1 *297:D 8.23044e-05
2 *566:X 8.23044e-05
3 *273:D *297:D 0
*RES
1 *566:X *297:D 40.8446 
*END

*D_NET *140 0.00237503
*CONN
*I *478:A1 I *D sg13g2_a21o_1
*I *567:X O *D sg13g2_dlygate4sd3_1
*CAP
1 *478:A1 9.0817e-05
2 *567:X 0.000839177
3 *140:10 0.000929994
4 *478:A1 *158:12 1.54008e-05
5 *478:A1 *158:29 0
6 *140:10 *283:RESET_B 8.02269e-05
7 *140:10 *621:A 0
8 *140:10 *158:18 0
9 *140:10 *158:29 0
10 *140:10 *226:8 0
11 *283:D *140:10 0
12 *470:A1 *478:A1 0
13 *568:A *478:A1 4.78769e-05
14 *110:14 *140:10 0.000371538
15 *128:10 *140:10 0
*RES
1 *567:X *140:10 48.2091 
2 *140:10 *478:A1 40.9682 
*END

*D_NET *141 0.00112918
*CONN
*I *291:D I *D sg13g2_dfrbpq_1
*I *568:X O *D sg13g2_dlygate4sd3_1
*CAP
1 *291:D 0.000282292
2 *568:X 0.000282292
3 *291:D *291:RESET_B 0.000209871
4 *291:D *487:A1 8.01392e-05
5 *267:D *291:D 0.000274582
*RES
1 *568:X *291:D 43.708 
*END

*D_NET *142 0.00106349
*CONN
*I *451:A1 I *D sg13g2_a21o_1
*I *569:X O *D sg13g2_dlygate4sd3_1
*CAP
1 *451:A1 0
2 *569:X 0.000262889
3 *142:10 0.000262889
4 *142:10 *155:49 0.000303488
5 *142:10 *178:102 0
6 *279:CLK *142:10 0
7 *109:8 *142:10 0
8 *138:8 *142:10 0.000234224
*RES
1 *569:X *142:10 43.2033 
2 *142:10 *451:A1 40 
*END

*D_NET *143 0.00053202
*CONN
*I *265:D I *D sg13g2_dfrbpq_1
*I *570:X O *D sg13g2_dlygate4sd3_1
*CAP
1 *265:D 0.000149292
2 *570:X 0.000116719
3 *143:8 0.00026601
4 *265:D *265:RESET_B 0
*RES
1 *570:X *143:8 41.339 
2 *143:8 *265:D 41.5347 
*END

*D_NET *144 0.0126965
*CONN
*I *474:B1 I *D sg13g2_a21o_1
*I *499:B1 I *D sg13g2_a21oi_1
*I *507:B1 I *D sg13g2_a21o_1
*I *506:B1 I *D sg13g2_a21oi_1
*I *433:B1 I *D sg13g2_a21o_1
*I *462:B1 I *D sg13g2_a21o_1
*I *457:B1 I *D sg13g2_a21o_1
*I *482:B1 I *D sg13g2_a21o_1
*I *528:X O *D sg13g2_buf_8
*CAP
1 *474:B1 0
2 *499:B1 0
3 *507:B1 6.71642e-05
4 *506:B1 0.000740479
5 *433:B1 3.44903e-05
6 *462:B1 0
7 *457:B1 7.42187e-05
8 *482:B1 0.00106809
9 *528:X 0.000225195
10 *144:66 0.00029736
11 *144:47 0.000540633
12 *144:45 0.000479517
13 *144:43 0.00123137
14 *144:37 0.000536572
15 *144:31 0.000613522
16 *144:10 0.00173862
17 *144:6 0.000536687
18 *457:B1 *457:A1 1.54556e-05
19 *482:B1 *461:C 0
20 *482:B1 *482:A1 4.79124e-05
21 *482:B1 *163:60 0
22 *482:B1 *178:81 0
23 *482:B1 *201:8 0
24 *506:B1 *521:D 4.77699e-05
25 *506:B1 *523:RESET_B 8.02269e-05
26 *506:B1 *149:10 0.000237975
27 *506:B1 *161:12 0
28 *506:B1 *162:29 0
29 *144:6 *474:A1 1.54556e-05
30 *144:6 *178:45 1.54008e-05
31 *144:10 *474:A1 0.000144958
32 *144:10 *163:60 7.86681e-05
33 *144:31 *547:A 0
34 *144:31 *557:A 0
35 *144:31 *163:60 0
36 *144:31 *185:14 6.48261e-05
37 *144:31 *185:24 1.54008e-05
38 *144:31 *185:36 6.48781e-05
39 *144:37 *557:A 1.54008e-05
40 *144:43 *557:A 0
41 *144:43 *611:A 0
42 *144:45 *162:29 0
43 *144:45 *178:68 0
44 *144:47 *178:68 0
45 *144:66 *162:12 0.000340992
46 *144:66 *241:10 0
47 *449:A2 *144:6 0.000321407
48 *449:A2 *144:10 0.000207809
49 *462:A2 *457:B1 4.77699e-05
50 *462:A2 *144:66 0.000305192
51 *462:A1 *457:B1 0
52 *482:A2 *482:B1 0
53 *500:B1 *144:31 0
54 *514:A *482:B1 0
55 *523:D *144:43 0
56 *589:A *506:B1 0
57 *44:10 *433:B1 0
58 *44:10 *457:B1 0
59 *44:10 *144:66 0
60 *66:12 *482:B1 0
61 *68:10 *507:B1 0.000237686
62 *68:10 *144:37 0.000400239
63 *70:10 *506:B1 0
64 *72:12 *457:B1 0.00012842
65 *72:12 *144:47 0.0003417
66 *72:12 *144:66 0
67 *92:26 *506:B1 0
68 *98:8 *144:6 0
69 *113:8 *482:B1 0
70 *113:72 *482:B1 0
71 *113:72 *144:10 0.00011101
72 *113:72 *144:37 0
73 *121:85 *144:37 0
74 *121:91 *507:B1 0.000107631
75 *121:91 *144:37 0.000400195
76 *121:91 *144:45 0
77 *130:8 *144:45 0
78 *130:8 *144:47 0
79 *131:8 *144:45 0.000718198
*RES
1 *528:X *144:6 22.266 
2 *144:6 *144:10 23.1312 
3 *144:10 *482:B1 49.167 
4 *144:10 *144:31 23.502 
5 *144:31 *144:37 23.6668 
6 *144:37 *144:43 42.0497 
7 *144:43 *144:45 3.811 
8 *144:45 *144:47 2.0806 
9 *144:47 *457:B1 40.9167 
10 *144:47 *144:66 43.6359 
11 *144:66 *462:B1 40 
12 *144:45 *433:B1 40.3193 
13 *144:43 *506:B1 47.1379 
14 *144:37 *507:B1 41.0918 
15 *144:31 *499:B1 20 
16 *144:6 *474:B1 20 
*END

*D_NET *145 0.00301501
*CONN
*I *439:A1 I *D sg13g2_a21o_1
*I *571:X O *D sg13g2_dlygate4sd3_1
*CAP
1 *439:A1 0.000275483
2 *571:X 0.000512111
3 *145:10 0.000787593
4 *439:A1 *439:B1 0.000332719
5 *439:A1 *157:65 0.000144875
6 *439:A1 *230:10 0
7 *145:10 *261:RESET_B 0.000403498
8 *255:CLK *145:10 0
9 *439:A2 *439:A1 0.000122574
10 *472:A2 *145:10 0
11 *577:A *439:A1 0.000144655
12 *46:10 *145:10 0.000291502
*RES
1 *571:X *145:10 45.768 
2 *145:10 *439:A1 43.399 
*END

*D_NET *146 0.00108599
*CONN
*I *255:D I *D sg13g2_dfrbpq_1
*I *572:X O *D sg13g2_dlygate4sd3_1
*CAP
1 *255:D 0.000308711
2 *572:X 0.000308711
3 *255:D *445:D 0
4 *255:D *535:A 0
5 *255:D *157:65 0.000468565
*RES
1 *572:X *255:D 43.4814 
*END

*D_NET *147 0.00300203
*CONN
*I *435:A I *D sg13g2_nor2b_2
*I *505:B1 I *D sg13g2_o21ai_1
*I *573:X O *D sg13g2_dlygate4sd3_1
*CAP
1 *435:A 0
2 *505:B1 9.50681e-05
3 *573:X 0.000110988
4 *147:27 0.000429568
5 *147:10 0.000524636
6 *147:8 0.000110988
7 *147:8 *174:27 0.000344847
8 *147:8 *185:8 0.000506916
9 *147:27 *497:A 0
10 *147:27 *503:A_N 0.000208178
11 *147:27 *160:33 0
12 *147:27 *161:12 0
13 *147:27 *163:33 0.000287832
14 *147:27 *229:101 0.000287499
15 *503:B *147:27 8.01116e-05
16 *536:A *505:B1 0
17 *536:A *147:27 0
18 *69:10 *147:27 1.54008e-05
*RES
1 *573:X *147:8 42.3278 
2 *147:8 *147:10 20 
3 *147:10 *505:B1 20.7519 
4 *147:10 *147:27 44.7895 
5 *147:27 *435:A 20 
*END

*D_NET *148 0.000681329
*CONN
*I *521:D I *D sg13g2_dfrbpq_2
*I *575:X O *D sg13g2_dlygate4sd3_1
*CAP
1 *521:D 0.000195788
2 *575:X 0.000195788
3 *521:D *161:12 0
4 *506:B1 *521:D 4.77699e-05
5 *70:10 *521:D 0.000241983
*RES
1 *575:X *521:D 42.2145 
*END

*D_NET *149 0.00478454
*CONN
*I *507:A1 I *D sg13g2_a21o_1
*I *435:B_N I *D sg13g2_nor2b_2
*I *576:X O *D sg13g2_dlygate4sd3_1
*CAP
1 *507:A1 3.51671e-05
2 *435:B_N 0
3 *576:X 0.00071659
4 *149:30 0.000706175
5 *149:14 0.000904582
6 *149:10 0.00087983
7 *149:10 *215:8 0
8 *149:14 *161:12 0
9 *149:30 *430:A 0
10 *149:30 *502:B 1.54008e-05
11 *149:30 *161:12 0
12 *149:30 *163:46 0.000154018
13 *149:30 *163:50 2.22103e-05
14 *502:C *149:30 0.000225112
15 *504:B *149:30 0
16 *506:A2 *149:10 0
17 *506:B1 *149:10 0.000237975
18 *523:D *149:14 0
19 *523:D *149:30 2.21754e-05
20 *68:10 *149:10 0
21 *87:31 *149:30 0.000112426
22 *92:16 *149:30 0
23 *92:26 *507:A1 8.01995e-05
24 *92:26 *149:14 4.77699e-05
25 *92:26 *149:30 0
26 *95:14 *149:30 1.54285e-05
27 *95:16 *149:30 4.77702e-05
28 *95:26 *149:30 0.000273509
29 *96:10 *149:30 0
30 *114:22 *149:10 0
31 *114:30 *149:10 0
32 *121:85 *149:30 0.000111761
33 *121:91 *149:30 0.000176442
*RES
1 *576:X *149:10 47.5911 
2 *149:10 *149:14 21.4008 
3 *149:14 *149:30 47.4778 
4 *149:30 *435:B_N 20 
5 *149:14 *507:A1 20.5356 
*END

*D_NET *150 0.00116068
*CONN
*I *535:A I *D sg13g2_buf_8
*I *577:X O *D sg13g2_dlygate4sd3_1
*CAP
1 *535:A 0.000313555
2 *577:X 0.000313555
3 *535:A *445:D 0.000533566
4 *535:A *157:65 0
5 *255:D *535:A 0
6 *46:10 *535:A 0
*RES
1 *577:X *535:A 43.5638 
*END

*D_NET *151 0.000408274
*CONN
*I *526:A I *D sg13g2_buf_8
*I *578:X O *D sg13g2_dlygate4sd3_1
*CAP
1 *526:A 0.000204137
2 *578:X 0.000204137
3 *526:A *218:26 0
4 *133:60 *526:A 0
*RES
1 *578:X *526:A 41.9982 
*END

*D_NET *152 0.00115882
*CONN
*I *279:D I *D sg13g2_dfrbpq_2
*I *579:X O *D sg13g2_dlygate4sd3_1
*CAP
1 *279:D 9.39828e-05
2 *579:X 0.000138681
3 *152:10 0.000232664
4 *279:D *475:C 0
5 *279:D *178:102 0
6 *152:10 *279:RESET_B 0.000144027
7 *152:10 *178:102 7.99004e-05
8 *475:B *152:10 0.000235345
9 *121:14 *152:10 0.000234224
*RES
1 *579:X *152:10 42.06 
2 *152:10 *279:D 40.7519 
*END

*D_NET *153 0.000574799
*CONN
*I *534:A I *D sg13g2_buf_8
*I *580:X O *D sg13g2_dlygate4sd3_1
*CAP
1 *534:A 0.000183286
2 *580:X 0.000183286
3 *534:A *240:31 0
4 *444:A2 *534:A 0.000208227
*RES
1 *580:X *534:A 41.751 
*END

*D_NET *154 0.000293332
*CONN
*I *431:B I *D sg13g2_nor2_2
*I *581:X O *D sg13g2_dlygate4sd3_1
*CAP
1 *431:B 0
2 *581:X 5.45858e-05
3 *154:8 5.45858e-05
4 *154:8 *163:33 0.00018416
*RES
1 *581:X *154:8 40.8446 
2 *154:8 *431:B 40 
*END

*D_NET *155 0.00868332
*CONN
*I *459:B1 I *D sg13g2_a21o_1
*I *468:B1 I *D sg13g2_a21o_1
*I *449:B1 I *D sg13g2_a21o_1
*I *442:B1 I *D sg13g2_a21o_1
*I *451:B1 I *D sg13g2_a21o_1
*I *484:B1 I *D sg13g2_a21o_1
*I *476:B1 I *D sg13g2_a21o_1
*I *529:X O *D sg13g2_buf_1
*CAP
1 *459:B1 0.000629952
2 *468:B1 6.56772e-05
3 *449:B1 0.000205419
4 *442:B1 2.56511e-05
5 *451:B1 2.81522e-05
6 *484:B1 0
7 *476:B1 0
8 *529:X 0.000136082
9 *155:76 0.000378999
10 *155:63 0.000166553
11 *155:49 0.000129894
12 *155:41 0.000578845
13 *155:24 0.000525578
14 *155:20 0.00061015
15 *155:10 0.000839901
16 *155:6 0.00106757
17 *449:B1 *178:45 0
18 *449:B1 *229:44 4.77425e-05
19 *459:B1 *550:A 0
20 *459:B1 *207:39 0
21 *459:B1 *231:8 0
22 *468:B1 *468:A1 1.53311e-05
23 *468:B1 *178:45 0
24 *468:B1 *229:44 0
25 *155:6 *207:39 0
26 *155:10 *281:RESET_B 0.000663031
27 *155:10 *489:A1 0
28 *155:10 *529:A 0
29 *155:10 *179:24 0
30 *155:20 *574:A 0
31 *155:24 *237:10 0
32 *155:63 *529:A 0
33 *155:76 *229:44 7.48842e-05
34 *257:D *155:20 0.000274325
35 *281:CLK *155:6 0
36 *442:A1 *442:B1 1.54008e-05
37 *442:A1 *155:20 0.000274058
38 *459:A2 *459:B1 0.000177298
39 *459:A1 *459:B1 0.000208968
40 *476:A2 *155:24 0
41 *476:A1 *155:24 1.54008e-05
42 *476:A1 *155:41 4.77425e-05
43 *483:B *155:41 0.00018064
44 *484:A1 *155:49 1.54008e-05
45 *512:A *451:B1 0
46 *512:A *155:24 0
47 *512:A *155:41 0
48 *546:A *449:B1 0
49 *59:10 *155:10 0.000181694
50 *59:10 *155:63 0.000127867
51 *59:10 *155:76 0.000235075
52 *63:12 *155:24 0
53 *63:12 *155:41 0
54 *73:8 *155:20 0
55 *86:14 *155:49 0
56 *103:37 *155:41 0.00012632
57 *103:54 *155:41 7.50938e-05
58 *109:8 *155:49 0.000235141
59 *121:14 *155:41 0
60 *124:8 *155:20 0
61 *142:10 *155:49 0.000303488
*RES
1 *529:X *155:6 21.4008 
2 *155:6 *155:10 24.7998 
3 *155:10 *155:20 45.2839 
4 *155:20 *155:24 20.9682 
5 *155:24 *476:B1 20 
6 *155:24 *155:41 44.1509 
7 *155:41 *155:49 41.9055 
8 *155:49 *484:B1 20 
9 *155:41 *451:B1 20.3193 
10 *155:10 *155:63 0.5974 
11 *155:63 *442:B1 40.3193 
12 *155:63 *155:76 21.5862 
13 *155:76 *449:B1 22.0497 
14 *155:76 *468:B1 20.6695 
15 *155:6 *459:B1 26.3963 
*END

*D_NET *156 0.000550289
*CONN
*I *533:A I *D sg13g2_buf_8
*I *582:X O *D sg13g2_dlygate4sd3_1
*CAP
1 *533:A 0.00017028
2 *582:X 0.00017028
3 *533:A *196:51 0.000209729
4 *479:A *533:A 0
*RES
1 *582:X *533:A 41.751 
*END

*D_NET *157 0.0153778
*CONN
*I *437:B1 I *D sg13g2_a21o_1
*I *466:B1 I *D sg13g2_a21o_1
*I *446:B1 I *D sg13g2_a21o_1
*I *472:B1 I *D sg13g2_a21o_1
*I *439:B1 I *D sg13g2_a21o_1
*I *444:B1 I *D sg13g2_a21o_1
*I *455:B1 I *D sg13g2_a21o_1
*I *503:A_N I *D sg13g2_nand3b_1
*I *530:X O *D sg13g2_buf_8
*CAP
1 *437:B1 0.000478548
2 *466:B1 0.000138701
3 *446:B1 0
4 *472:B1 0
5 *439:B1 0.000219742
6 *444:B1 0.00109713
7 *455:B1 0.000124472
8 *503:A_N 0.000455555
9 *530:X 0
10 *157:94 0.00124644
11 *157:82 0.000162235
12 *157:65 0.00128656
13 *157:50 0.00215925
14 *157:33 0.0005078
15 *157:27 0.000688622
16 *157:21 0.00111975
17 *157:4 0.000483282
18 *437:B1 *463:C 0
19 *444:B1 *444:A1 4.78578e-05
20 *444:B1 *480:A1 3.1684e-05
21 *444:B1 *480:B1 4.77425e-05
22 *444:B1 *163:14 0
23 *444:B1 *218:8 7.9225e-05
24 *444:B1 *240:31 0
25 *455:B1 *445:C 4.68848e-05
26 *466:B1 *463:C 0
27 *466:B1 *466:A1 1.54008e-05
28 *466:B1 *185:79 1.54008e-05
29 *503:A_N *160:33 0
30 *503:A_N *161:12 0.000176493
31 *503:A_N *161:31 0
32 *157:27 *160:33 0.000394566
33 *157:27 *233:10 0.000393821
34 *157:27 *240:10 0
35 *157:33 *240:10 0.000342145
36 *157:33 *243:12 4.77425e-05
37 *157:50 *163:121 0.000288184
38 *157:50 *240:10 7.51285e-05
39 *157:50 *240:23 0.000408915
40 *157:65 *445:D 0
41 *157:65 *163:16 0
42 *157:82 *230:10 0.00018387
43 *157:94 *531:A 0.000242186
44 *157:94 *161:31 0
45 *157:94 *174:57 0
46 *157:94 *207:10 0
47 *255:D *157:65 0.000468565
48 *437:A2 *437:B1 0
49 *439:A1 *439:B1 0.000332719
50 *439:A1 *157:65 0.000144875
51 *444:A2 *444:B1 0
52 *463:B *437:B1 0
53 *464:A2 *437:B1 4.77699e-05
54 *466:A2 *466:B1 0
55 *466:A2 *157:94 0
56 *480:A2 *444:B1 0.000154968
57 *503:C *503:A_N 1.63226e-05
58 *525:A *157:21 0
59 *527:A *437:B1 1.52441e-05
60 *527:A *157:94 0
61 *535:A *157:65 0
62 *549:A *157:65 0
63 *577:A *157:65 0.00014514
64 *578:A *437:B1 0
65 *42:13 *157:27 0
66 *46:10 *439:B1 0.000112791
67 *46:10 *157:65 9.72278e-05
68 *48:10 *444:B1 0
69 *49:8 *157:27 0
70 *49:16 *455:B1 8.00842e-05
71 *80:22 *157:65 0
72 *97:10 *157:33 0.000176394
73 *100:8 *503:A_N 0.000372155
74 *100:8 *157:94 0
75 *106:10 *455:B1 0
76 *107:31 *466:B1 0
77 *112:12 *157:94 0
78 *112:50 *157:94 0
79 *118:6 *157:65 0
80 *118:17 *444:B1 0
81 *133:60 *437:B1 0
82 *147:27 *503:A_N 0.000208178
*RES
1 *530:X *157:4 20 
2 *157:4 *503:A_N 25.5826 
3 *157:4 *157:21 0.3502 
4 *157:21 *157:27 45.7886 
5 *157:27 *157:33 22.7707 
6 *157:33 *455:B1 41.1845 
7 *157:33 *157:50 22.7501 
8 *157:50 *444:B1 29.5584 
9 *157:50 *157:65 9.1876 
10 *157:65 *439:B1 22.5338 
11 *157:65 *157:82 41.8334 
12 *157:82 *472:B1 20 
13 *157:27 *446:B1 20 
14 *157:21 *157:94 5.7018 
15 *157:94 *466:B1 21.6274 
16 *157:94 *437:B1 24.7736 
*END

*D_NET *158 0.0102359
*CONN
*I *480:B1 I *D sg13g2_a21o_1
*I *478:B1 I *D sg13g2_a21o_1
*I *453:B1 I *D sg13g2_a21o_1
*I *464:B1 I *D sg13g2_a21o_1
*I *470:B1 I *D sg13g2_a21o_1
*I *531:X O *D sg13g2_buf_1
*CAP
1 *480:B1 0.00022984
2 *478:B1 0
3 *453:B1 0.000368681
4 *464:B1 0
5 *470:B1 0
6 *531:X 0.000429308
7 *158:37 0.000714614
8 *158:29 0.00170787
9 *158:18 0.000829278
10 *158:12 0.000777179
11 *158:8 0.00123163
12 *453:B1 *267:RESET_B 0
13 *453:B1 *621:A 0
14 *453:B1 *171:22 0
15 *480:B1 *196:43 0.000371967
16 *480:B1 *196:70 0.000287672
17 *158:8 *161:37 0
18 *158:8 *196:43 0.000341205
19 *158:8 *207:10 0
20 *158:12 *436:A 0
21 *158:12 *163:10 0
22 *158:12 *218:18 0
23 *158:29 *559:A 0
24 *158:29 *621:A 0
25 *158:37 *553:A 0
26 *158:37 *191:8 0
27 *277:CLK *158:37 0
28 *283:D *158:29 0
29 *444:A2 *480:B1 8.00842e-05
30 *444:B1 *480:B1 4.77425e-05
31 *453:A1 *453:B1 0.000242355
32 *464:A2 *158:37 0
33 *469:A *158:12 0
34 *470:A1 *158:29 8.00842e-05
35 *478:A2 *158:12 0.000144938
36 *478:A1 *158:12 1.54008e-05
37 *478:A1 *158:29 0
38 *494:S *453:B1 0.000291726
39 *494:S *158:29 0.000274297
40 *561:A *453:B1 0
41 *568:A *158:29 0
42 *57:10 *158:37 0
43 *74:10 *480:B1 0
44 *79:8 *158:18 0
45 *107:12 *158:8 0
46 *107:31 *158:8 0.000982068
47 *107:89 *480:B1 0.000181192
48 *107:89 *158:8 0.000425502
49 *107:89 *158:12 0
50 *125:8 *158:37 0.00018128
51 *133:73 *158:37 0
52 *140:10 *158:18 0
53 *140:10 *158:29 0
*RES
1 *531:X *158:8 46.5302 
2 *158:8 *158:12 25.2942 
3 *158:12 *158:18 41.8334 
4 *158:18 *470:B1 20 
5 *158:18 *158:29 6.3083 
6 *158:29 *158:37 48.5799 
7 *158:37 *464:B1 20 
8 *158:29 *453:B1 24.2127 
9 *158:12 *478:B1 20 
10 *158:8 *480:B1 43.605 
*END

*D_NET *159 0.00474046
*CONN
*I *531:A I *D sg13g2_buf_1
*I *529:A I *D sg13g2_buf_1
*I *530:A I *D sg13g2_buf_8
*I *528:A I *D sg13g2_buf_8
*I *532:X O *D sg13g2_buf_2
*CAP
1 *531:A 0.000501558
2 *529:A 0.000793436
3 *530:A 0
4 *528:A 2.43882e-05
5 *532:X 0
6 *159:30 0.00132486
7 *159:21 0.000122568
8 *159:6 0.000317614
9 *159:4 0.000200519
10 *528:A *207:18 0
11 *529:A *492:A0 0
12 *529:A *169:23 0
13 *529:A *178:45 0
14 *529:A *229:44 0
15 *529:A *247:8 0.000930931
16 *531:A *185:53 0
17 *531:A *207:10 0
18 *531:A *207:14 0
19 *159:6 *174:49 0
20 *159:6 *207:18 0
21 *159:21 *174:49 4.77699e-05
22 *532:A *159:6 0
23 *42:13 *159:21 0
24 *100:16 *531:A 0.00023464
25 *107:56 *529:A 0
26 *107:56 *531:A 0
27 *112:12 *529:A 0
28 *112:12 *531:A 0
29 *112:12 *159:21 0
30 *155:10 *529:A 0
31 *155:63 *529:A 0
32 *157:94 *531:A 0.000242186
*RES
1 *532:X *159:4 20 
2 *159:4 *159:6 1.6171 
3 *159:6 *528:A 20.3193 
4 *159:6 *159:21 41.4111 
5 *159:21 *530:A 20 
6 *159:4 *159:30 20.3193 
7 *159:30 *529:A 49.4966 
8 *159:30 *531:A 45.5002 
*END

*D_NET *160 0.00491406
*CONN
*I *428:B_N I *D sg13g2_nor2b_1
*I *460:A I *D sg13g2_nor2b_1
*I *497:B I *D sg13g2_xnor2_1
*I *588:X O *D sg13g2_buf_1
*CAP
1 *428:B_N 4.72978e-05
2 *460:A 0
3 *497:B 0
4 *588:X 0.000266998
5 *160:33 0.00082357
6 *160:16 0.000776273
7 *160:12 0.000911435
8 *160:8 0.00117843
9 *428:B_N *178:14 0
10 *160:8 *224:8 0
11 *160:33 *497:A 1.54556e-05
12 *160:33 *161:31 0
13 *503:A_N *160:33 0
14 *537:A *160:33 0.00050003
15 *107:12 *160:33 0
16 *147:27 *160:33 0
17 *157:27 *160:33 0.000394566
*RES
1 *588:X *160:8 42.8222 
2 *160:8 *160:12 31.1343 
3 *160:12 *160:16 40 
4 *160:16 *497:B 20 
5 *160:16 *160:33 48.446 
6 *160:33 *460:A 20 
7 *160:33 *428:B_N 20.5974 
*END

*D_NET *161 0.00679808
*CONN
*I *460:B_N I *D sg13g2_nor2b_1
*I *428:A I *D sg13g2_nor2b_1
*I *497:A I *D sg13g2_xnor2_1
*I *589:X O *D sg13g2_buf_1
*CAP
1 *460:B_N 0
2 *428:A 0
3 *497:A 6.26657e-05
4 *589:X 0.00120369
5 *161:37 0.000217981
6 *161:31 0.00111661
7 *161:16 0.00109397
8 *161:12 0.00133637
9 *161:12 *611:A 0
10 *161:12 *162:29 4.77425e-05
11 *161:12 *211:12 0
12 *161:16 *229:101 0
13 *161:31 *519:RESET_B 0
14 *161:31 *233:10 0
15 *502:A *161:12 8.01995e-05
16 *502:C *161:12 0
17 *503:B *497:A 4.75166e-05
18 *503:A_N *161:12 0.000176493
19 *503:A_N *161:31 0
20 *506:A2 *161:12 0
21 *506:B1 *161:12 0
22 *521:D *161:12 0
23 *523:D *161:12 0.000177442
24 *536:A *161:12 0
25 *69:10 *497:A 0.000112458
26 *69:10 *161:31 0
27 *70:10 *161:12 0
28 *87:10 *161:16 0.000237686
29 *90:8 *161:16 0.000342563
30 *92:12 *161:12 0.000112426
31 *92:16 *161:12 0.000109767
32 *92:26 *161:12 0.000178798
33 *107:12 *161:31 0
34 *107:12 *161:37 0.000128248
35 *112:50 *161:37 0
36 *147:27 *497:A 0
37 *147:27 *161:12 0
38 *149:14 *161:12 0
39 *149:30 *161:12 0
40 *157:94 *161:31 0
41 *158:8 *161:37 0
42 *160:33 *497:A 1.54556e-05
43 *160:33 *161:31 0
*RES
1 *589:X *161:12 31.536 
2 *161:12 *161:16 21.8334 
3 *161:16 *497:A 40.7519 
4 *161:16 *161:31 27.9001 
5 *161:31 *161:37 42.0806 
6 *161:37 *428:A 20 
7 *161:31 *460:B_N 20 
*END

*D_NET *162 0.00471415
*CONN
*I *488:A0 I *D sg13g2_mux2_1
*I *558:A I *D sg13g2_dlygate4sd3_1
*I *610:A I *D sg13g2_buf_1
*I *251:Q O *D sg13g2_dfrbpq_1
*CAP
1 *488:A0 2.48096e-05
2 *558:A 0
3 *610:A 0
4 *251:Q 0.000128973
5 *162:29 0.000263821
6 *162:21 0.000456948
7 *162:12 0.000885726
8 *162:8 0.00118302
9 *488:A0 *557:A 3.23417e-05
10 *488:A0 *176:17 1.54008e-05
11 *162:12 *176:10 0
12 *162:12 *178:68 0
13 *162:12 *206:8 0.000718648
14 *162:12 *208:10 0
15 *162:12 *241:10 0
16 *162:21 *176:17 0.000274527
17 *162:29 *224:8 0
18 *275:CLK *162:21 0
19 *506:B1 *162:29 0
20 *98:16 *162:12 0
21 *113:72 *162:21 0
22 *131:8 *162:12 0
23 *131:8 *162:29 0.000341206
24 *144:45 *162:29 0
25 *144:66 *162:12 0.000340992
26 *161:12 *162:29 4.77425e-05
*RES
1 *251:Q *162:8 41.8334 
2 *162:8 *162:12 32.463 
3 *162:12 *610:A 20 
4 *162:8 *162:21 21.8334 
5 *162:21 *162:29 43.6359 
6 *162:29 *558:A 20 
7 *162:21 *488:A0 20.3193 
*END

*D_NET *163 0.016677
*CONN
*I *443:B I *D sg13g2_nand3_1
*I *498:A2 I *D sg13g2_a21o_1
*I *441:B I *D sg13g2_nand3_1
*I *467:A I *D sg13g2_nand3_1
*I *432:C I *D sg13g2_nand3_1
*I *461:B I *D sg13g2_nand3_1
*I *502:B I *D sg13g2_or3_1
*I *445:D I *D sg13g2_nand4_1
*I *533:X O *D sg13g2_buf_8
*CAP
1 *443:B 0
2 *498:A2 1.07941e-05
3 *441:B 0.000238068
4 *467:A 2.76617e-05
5 *432:C 0
6 *461:B 0
7 *502:B 3.29911e-05
8 *445:D 0.000677585
9 *533:X 0.00022716
10 *163:121 0.000377944
11 *163:86 0.000533947
12 *163:75 0.000800981
13 *163:60 0.000549676
14 *163:50 0.00125299
15 *163:46 0.000257365
16 *163:33 0.000834925
17 *163:16 0.00169647
18 *163:14 0.0012591
19 *163:10 0.000815351
20 *441:B *468:A1 0
21 *445:D *445:C 0
22 *445:D *174:10 0.000242213
23 *467:A *229:59 0
24 *163:10 *196:43 0.000234224
25 *163:14 *174:10 0
26 *163:16 *174:10 0
27 *163:33 *174:27 0
28 *163:46 *229:101 0.000234239
29 *163:50 *229:101 0.000506729
30 *163:60 *461:C 4.77425e-05
31 *163:60 *185:36 0.000209456
32 *163:60 *229:75 0
33 *163:75 *473:C 8.02267e-05
34 *163:75 *174:49 0
35 *163:75 *185:36 0.000209083
36 *163:86 *467:C 0
37 *163:86 *207:18 0
38 *163:86 *229:44 1.54008e-05
39 *163:86 *229:59 0
40 *163:121 *443:A 0
41 *163:121 *240:23 0
42 *255:D *445:D 0
43 *432:B *163:75 0.000533123
44 *444:B1 *163:14 0
45 *447:B_N *163:33 0.000509382
46 *448:C *163:60 8.03146e-05
47 *448:C *163:75 0.000128769
48 *467:B *441:B 4.77425e-05
49 *467:B *163:86 1.54008e-05
50 *468:A2 *467:A 0
51 *469:A *163:10 0
52 *479:A *163:14 0
53 *482:B1 *163:60 0
54 *502:A *502:B 1.54282e-05
55 *502:C *502:B 0
56 *511:A *163:121 0.000111761
57 *535:A *445:D 0.000533566
58 *581:A *445:D 4.77699e-05
59 *581:A *163:16 3.23417e-05
60 *581:A *163:33 0.000592746
61 *46:10 *445:D 0
62 *80:22 *163:121 0.000176444
63 *91:10 *163:33 0
64 *95:14 *498:A2 1.69409e-05
65 *95:14 *502:B 0
66 *95:41 *163:60 0.000192189
67 *95:52 *163:60 3.15716e-05
68 *99:69 *163:121 1.54008e-05
69 *103:25 *441:B 0.000144841
70 *107:60 *163:75 0.00053298
71 *107:60 *163:86 0.000274555
72 *107:89 *163:10 0.000111828
73 *112:37 *441:B 0
74 *112:50 *163:10 0
75 *113:72 *163:60 0.000129108
76 *118:6 *163:16 0
77 *118:17 *163:14 0
78 *118:23 *163:14 0
79 *144:10 *163:60 7.86681e-05
80 *144:31 *163:60 0
81 *147:27 *163:33 0.000287832
82 *149:30 *502:B 1.54008e-05
83 *149:30 *163:46 0.000154018
84 *149:30 *163:50 2.22103e-05
85 *154:8 *163:33 0.00018416
86 *157:50 *163:121 0.000288184
87 *157:65 *445:D 0
88 *157:65 *163:16 0
89 *158:12 *163:10 0
*RES
1 *533:X *163:10 42.4926 
2 *163:10 *163:14 25.0779 
3 *163:14 *163:16 2.6986 
4 *163:16 *445:D 27.1791 
5 *163:16 *163:33 29.2494 
6 *163:33 *502:B 40.3193 
7 *163:33 *163:46 1.4111 
8 *163:46 *163:50 22.3278 
9 *163:50 *163:60 45.1294 
10 *163:60 *461:B 20 
11 *163:50 *163:75 46.2418 
12 *163:75 *432:C 20 
13 *163:75 *163:86 2.9664 
14 *163:86 *467:A 20.3502 
15 *163:86 *441:B 22.349 
16 *163:46 *498:A2 40.1133 
17 *163:14 *163:121 44.2539 
18 *163:121 *443:B 20 
*END

*D_NET *164 0.00453086
*CONN
*I *621:A I *D sg13g2_buf_1
*I *559:A I *D sg13g2_dlygate4sd3_1
*I *487:A0 I *D sg13g2_mux2_1
*I *253:Q O *D sg13g2_dfrbpq_1
*CAP
1 *621:A 0.000816716
2 *559:A 0.000157613
3 *487:A0 0.000172027
4 *253:Q 0.00011376
5 *164:21 0.00111887
6 *164:8 0.000430331
7 *487:A0 *487:A1 1.54008e-05
8 *621:A *494:A1 8.0001e-05
9 *621:A *171:22 0
10 *621:A *184:8 0.000111037
11 *621:A *199:8 1.54282e-05
12 *621:A *226:8 0
13 *253:CLK *487:A0 0.000502289
14 *253:CLK *164:21 0.000341621
15 *453:A1 *621:A 0
16 *453:B1 *621:A 0
17 *568:A *559:A 0
18 *568:A *164:8 0
19 *2:8 *621:A 4.79124e-05
20 *27:8 *621:A 0
21 *110:14 *621:A 0
22 *116:52 *621:A 0.000372797
23 *116:54 *621:A 7.52158e-05
24 *116:54 *164:21 0.000159839
25 *140:10 *621:A 0
26 *158:29 *559:A 0
27 *158:29 *621:A 0
*RES
1 *253:Q *164:8 41.1845 
2 *164:8 *487:A0 42.6471 
3 *164:8 *164:21 2.3278 
4 *164:21 *559:A 41.6171 
5 *164:21 *621:A 48.1194 
*END

*D_NET *165 0.00102496
*CONN
*I *622:A I *D sg13g2_buf_1
*I *508:X O *D sg13g2_buf_1
*CAP
1 *622:A 0
2 *508:X 0.000423829
3 *165:10 0.000423829
4 *165:10 *571:A 0
5 *165:10 *202:8 0.0001773
6 D[4] *165:10 0
*RES
1 *508:X *165:10 44.1921 
2 *165:10 *622:A 40 
*END

*D_NET *166 0.00470274
*CONN
*I *489:A0 I *D sg13g2_mux2_1
*I *550:A I *D sg13g2_dlygate4sd3_1
*I *623:A I *D sg13g2_buf_1
*I *257:Q O *D sg13g2_dfrbpq_1
*CAP
1 *489:A0 0.000397678
2 *550:A 0.000189568
3 *623:A 6.33039e-05
4 *257:Q 0
5 *166:17 0.000640119
6 *166:6 0.000116177
7 *489:A0 *489:A1 0
8 *489:A0 *179:24 0
9 *489:A0 *193:8 0.00119611
10 *489:A0 *227:10 0.00085422
11 *489:A0 *237:10 7.58826e-05
12 *550:A *231:8 0.000306081
13 *623:A *193:8 0.000181608
14 *623:A *227:10 0.000128576
15 *166:17 *193:8 0.000287758
16 *166:17 *227:10 0.000265663
17 *459:B1 *550:A 0
18 *73:8 *489:A0 0
*RES
1 *257:Q *166:6 40 
2 *166:6 *623:A 41.0918 
3 *166:6 *166:17 1.339 
4 *166:17 *550:A 42.0497 
5 *166:17 *489:A0 46.8495 
*END

*D_NET *167 0.00321954
*CONN
*I *624:A I *D sg13g2_buf_1
*I *563:A I *D sg13g2_dlygate4sd3_1
*I *490:A0 I *D sg13g2_mux2_1
*I *259:Q O *D sg13g2_dfrbpq_1
*CAP
1 *624:A 0
2 *563:A 0
3 *490:A0 0.000249944
4 *259:Q 0
5 *167:34 0.000492733
6 *167:10 0.000484659
7 *167:4 0.000727447
8 *490:A0 *543:A 0
9 *490:A0 *194:10 0
10 *490:A0 *236:8 0.000340704
11 *167:10 *194:10 0
12 *167:34 *604:A 0
13 *167:34 *180:44 0.000349885
14 BN[2] *490:A0 7.52158e-05
15 BN[2] *167:10 0.000159511
16 BN[2] *167:34 0
17 BN[6] *167:34 0
18 D[3] *167:10 0.000339441
19 *22:12 *167:10 0
*RES
1 *259:Q *167:4 20 
2 *167:4 *167:10 23.1106 
3 *167:10 *490:A0 43.3166 
4 *167:10 *563:A 40 
5 *167:4 *167:34 45.3663 
6 *167:34 *624:A 20 
*END

*D_NET *168 0.00555709
*CONN
*I *587:A I *D sg13g2_dlygate4sd3_1
*I *491:A0 I *D sg13g2_mux2_1
*I *625:A I *D sg13g2_buf_1
*I *261:Q O *D sg13g2_dfrbpq_1
*CAP
1 *587:A 0.000117217
2 *491:A0 0.000233737
3 *625:A 0.00082635
4 *261:Q 0.000331189
5 *168:34 0.000599452
6 *168:8 0.000909041
7 *491:A0 *491:A1 8.00842e-05
8 *491:A0 *181:8 0
9 *491:A0 *243:12 0.000341205
10 *625:A *592:A 0.000209526
11 *625:A *620:A 8.01116e-05
12 *625:A *181:35 0
13 *625:A *200:14 0
14 *168:8 *180:24 0
15 *168:34 *592:A 0.000468767
16 *168:34 *200:14 0.000468883
17 BN[11] *491:A0 2.14736e-05
18 BN[11] *587:A 0.000210948
19 BN[3] *625:A 0
20 B[3] *625:A 0.000353953
21 D[4] *168:8 0
22 *485:A *491:A0 0
23 *10:8 *587:A 8.02269e-05
24 *10:8 *625:A 0.0001447
25 *17:8 *587:A 8.02269e-05
26 *35:10 *625:A 0
27 *42:13 *491:A0 0
*RES
1 *261:Q *168:8 40.5974 
2 *168:8 *625:A 48.3636 
3 *261:Q *168:34 43.1312 
4 *168:34 *491:A0 42.8634 
5 *168:34 *587:A 41.6274 
*END

*D_NET *169 0.00357875
*CONN
*I *492:A0 I *D sg13g2_mux2_1
*I *545:A I *D sg13g2_dlygate4sd3_1
*I *626:A I *D sg13g2_buf_1
*I *263:Q O *D sg13g2_dfrbpq_1
*CAP
1 *492:A0 0.000361578
2 *545:A 0.000140117
3 *626:A 0
4 *263:Q 0
5 *169:23 0.000776721
6 *169:12 0.000271414
7 *169:4 0.00054644
8 *492:A0 *197:8 0
9 *492:A0 *207:29 0
10 *492:A0 *221:10 0.000428304
11 *492:A0 *247:8 0
12 *169:12 *615:A 0
13 *169:12 *207:39 0.000177212
14 *169:12 *217:10 0
15 *169:23 *197:8 0
16 *169:23 *207:39 8.01995e-05
17 *169:23 *221:10 0.000554579
18 BN[4] *169:12 0
19 D[5] *169:23 0
20 D[9] *169:12 0
21 *281:CLK *545:A 0.000242186
22 *529:A *492:A0 0
23 *529:A *169:23 0
*RES
1 *263:Q *169:4 20 
2 *169:4 *169:12 42.9252 
3 *169:12 *626:A 20 
4 *169:4 *169:23 23.8522 
5 *169:23 *545:A 41.6171 
6 *169:23 *492:A0 44.8719 
*END

*D_NET *170 0.00229255
*CONN
*I *493:A0 I *D sg13g2_mux2_1
*I *590:A I *D sg13g2_buf_1
*I *569:A I *D sg13g2_dlygate4sd3_1
*I *265:Q O *D sg13g2_dfrbpq_1
*CAP
1 *493:A0 0
2 *590:A 0.000213609
3 *569:A 0.000341272
4 *265:Q 0.000626417
5 *170:22 0.000498755
6 *569:A *183:10 4.77702e-05
7 *569:A *183:18 0.000242213
8 *590:A *289:RESET_B 0
9 *590:A *493:S 0
10 *590:A *602:A 0
11 *590:A *616:A 0
12 *170:22 *493:A1 0.000112642
13 *170:22 *493:S 0
14 *170:22 *602:A 0
15 *170:22 *183:18 0
16 BN[5] *590:A 0
17 *279:CLK *569:A 0
18 *126:8 *569:A 0.000209871
*RES
1 *265:Q *569:A 43.6977 
2 *265:Q *170:22 23.4814 
3 *170:22 *590:A 22.3999 
4 *170:22 *493:A0 20 
*END

*D_NET *171 0.00370831
*CONN
*I *591:A I *D sg13g2_buf_1
*I *560:A I *D sg13g2_dlygate4sd3_1
*I *494:A0 I *D sg13g2_mux2_1
*I *267:Q O *D sg13g2_dfrbpq_1
*CAP
1 *591:A 0.000586627
2 *560:A 0.000172387
3 *494:A0 0
4 *267:Q 7.18676e-05
5 *171:22 0.00045666
6 *171:14 0.000905069
7 *171:8 0.000934516
8 *560:A *567:A 4.68833e-05
9 *560:A *603:A 0
10 *560:A *609:A 0
11 *591:A *617:A 0
12 *591:A *225:10 0
13 *171:8 *617:A 0
14 *171:8 *191:8 0
15 *171:14 *567:A 0.000112429
16 *171:14 *609:A 0
17 *171:22 *494:A1 8.0334e-05
18 *171:22 *617:A 0
19 *171:22 *184:21 0
20 *171:22 *191:8 0
21 *453:B1 *171:22 0
22 *516:A *171:14 0
23 *621:A *171:22 0
24 *22:8 *591:A 0
25 *110:14 *171:14 0
26 *116:6 *171:14 0
27 *116:52 *591:A 0.000106064
28 *116:52 *171:8 0.00023547
*RES
1 *267:Q *171:8 41.0918 
2 *171:8 *171:14 22.8016 
3 *171:14 *171:22 44.0067 
4 *171:22 *494:A0 20 
5 *171:14 *560:A 21.7819 
6 *171:8 *591:A 46.5302 
*END

*D_NET *172 0.0037148
*CONN
*I *541:A I *D sg13g2_dlygate4sd3_1
*I *495:A0 I *D sg13g2_mux2_1
*I *592:A I *D sg13g2_buf_1
*I *269:Q O *D sg13g2_dfrbpq_1
*CAP
1 *541:A 3.98669e-05
2 *495:A0 0
3 *592:A 0.000803402
4 *269:Q 0.000156155
5 *172:25 0.000441217
6 *172:10 0.00132223
7 *172:6 0.000273635
8 *592:A *200:14 0
9 *172:6 *178:141 0
10 *625:A *592:A 0.000209526
11 *10:8 *592:A 0
12 *17:8 *172:6 0
13 *17:8 *172:10 0
14 *41:13 *172:25 0
15 *42:13 *172:25 0
16 *133:34 *172:25 0
17 *168:34 *592:A 0.000468767
*RES
1 *269:Q *172:6 21.6171 
2 *172:6 *172:10 0.8858 
3 *172:10 *592:A 27.2409 
4 *172:10 *172:25 43.3578 
5 *172:25 *495:A0 20 
6 *172:6 *541:A 20.5176 
*END

*D_NET *173 0.00344743
*CONN
*I *496:A0 I *D sg13g2_mux2_1
*I *585:A I *D sg13g2_dlygate4sd3_1
*I *593:A I *D sg13g2_buf_1
*I *271:Q O *D sg13g2_dfrbpq_1
*CAP
1 *496:A0 0
2 *585:A 7.93274e-05
3 *593:A 0.000135603
4 *271:Q 8.84554e-05
5 *173:40 0.000683556
6 *173:23 0.00112937
7 *173:8 0.000590547
8 *593:A *187:24 0
9 *173:8 *187:24 0
10 *173:40 *229:75 0
11 *173:40 *241:10 0
12 BN[0] *593:A 0
13 *462:A2 *173:40 0.000304936
14 *462:A1 *585:A 0
15 *462:A1 *173:40 0
16 *481:B *173:40 0
17 *11:14 *593:A 0
18 *23:12 *593:A 0
19 *23:12 *173:8 0.000144843
20 *72:12 *173:40 0
21 *95:52 *173:40 0
22 *95:67 *585:A 0
23 *95:67 *173:40 0
24 *130:8 *173:40 0.00029079
*RES
1 *271:Q *173:8 40.9682 
2 *173:8 *593:A 41.3802 
3 *173:8 *173:23 24.0582 
4 *173:23 *585:A 20.7519 
5 *173:23 *173:40 47.2615 
6 *173:40 *496:A0 20 
*END

*D_NET *174 0.0152295
*CONN
*I *445:A I *D sg13g2_nand4_1
*I *430:A I *D sg13g2_or2_1
*I *440:A I *D sg13g2_nor2b_2
*I *434:B_N I *D sg13g2_nor2b_2
*I *465:A I *D sg13g2_nand4_1
*I *429:A I *D sg13g2_nor2_2
*I *501:B1 I *D sg13g2_o21ai_1
*I *438:A I *D sg13g2_nand4_1
*I *534:X O *D sg13g2_buf_8
*CAP
1 *445:A 0.000456053
2 *430:A 0.000141456
3 *440:A 0
4 *434:B_N 0
5 *465:A 0
6 *429:A 0
7 *501:B1 0
8 *438:A 7.38243e-05
9 *534:X 0.000830061
10 *174:70 0.000586509
11 *174:57 0.000783941
12 *174:49 0.000812471
13 *174:40 0.000698377
14 *174:33 0.000431341
15 *174:27 0.00113936
16 *174:14 0.000981985
17 *174:10 0.00154437
18 *438:A *517:RESET_B 0
19 *438:A *196:6 8.01995e-05
20 *445:A *196:14 0
21 *174:10 *445:C 0.000759282
22 *174:14 *185:8 0.000832203
23 *174:27 *185:8 0
24 *174:27 *196:6 9.67976e-05
25 *174:49 *185:53 0
26 *174:49 *207:18 0
27 *174:57 *185:53 4.77425e-05
28 *174:57 *185:60 4.77425e-05
29 *174:57 *185:79 1.54008e-05
30 *174:57 *207:10 0.00018128
31 *174:57 *207:14 0.000181192
32 *174:70 *178:14 0.000906939
33 *174:70 *178:16 7.52158e-05
34 *174:70 *185:79 0.000128741
35 *445:D *174:10 0.000242213
36 *455:A2 *174:10 0
37 *466:A2 *174:57 0
38 *466:A2 *174:70 0
39 *498:B1 *174:33 0
40 *501:A2 *174:33 0.000144217
41 *505:A1 *174:27 0
42 *532:A *174:49 0
43 *581:A *174:10 8.01116e-05
44 *46:10 *445:A 0
45 *49:16 *174:10 8.00842e-05
46 *74:10 *174:70 0
47 *87:16 *174:33 0.000338237
48 *87:29 *174:27 0.000212508
49 *87:29 *174:33 0.00018387
50 *88:10 *174:33 0.000111828
51 *95:14 *174:33 0
52 *95:14 *174:40 0
53 *95:14 *174:49 0
54 *95:26 *430:A 0
55 *96:10 *430:A 4.75151e-05
56 *96:10 *174:27 0
57 *96:10 *174:33 0
58 *97:10 *174:10 0
59 *106:10 *445:A 0.000565908
60 *106:10 *174:10 0
61 *107:31 *174:70 0
62 *107:89 *174:70 0
63 *114:8 *174:10 0.000215263
64 *114:8 *174:14 0.000238126
65 *114:14 *438:A 0
66 *114:14 *174:14 0.000237686
67 *119:12 *445:A 0
68 *120:15 *445:A 0
69 *121:12 *174:49 0.000306869
70 *121:73 *174:49 0
71 *147:8 *174:27 0.000344847
72 *149:30 *430:A 0
73 *157:94 *174:57 0
74 *159:6 *174:49 0
75 *159:21 *174:49 4.77699e-05
76 *163:14 *174:10 0
77 *163:16 *174:10 0
78 *163:33 *174:27 0
79 *163:75 *174:49 0
*RES
1 *534:X *174:10 48.549 
2 *174:10 *174:14 24.0582 
3 *174:14 *438:A 20.7519 
4 *174:14 *174:27 26.2933 
5 *174:27 *174:33 23.9758 
6 *174:33 *501:B1 20 
7 *174:33 *174:40 1.03772 
8 *174:40 *429:A 20 
9 *174:40 *174:49 6.22848 
10 *174:49 *174:57 42.1218 
11 *174:57 *465:A 20 
12 *174:57 *174:70 47.004 
13 *174:70 *434:B_N 20 
14 *174:49 *440:A 20 
15 *174:27 *430:A 41.3184 
16 *174:10 *445:A 44.9955 
*END

*D_NET *175 0.00413567
*CONN
*I *486:A0 I *D sg13g2_mux2_1
*I *562:A I *D sg13g2_dlygate4sd3_1
*I *594:A I *D sg13g2_buf_1
*I *273:Q O *D sg13g2_dfrbpq_1
*CAP
1 *486:A0 0
2 *562:A 0.000707448
3 *594:A 0.000369019
4 *273:Q 0
5 *175:42 0.00019684
6 *175:21 0.00143319
7 *175:6 0.000897917
8 *562:A *565:A 0
9 *562:A *574:A 0
10 *562:A *188:40 0.000273739
11 *594:A *606:A 1.54556e-05
12 *594:A *608:A 0
13 *594:A *190:8 0
14 *594:A *220:10 0
15 *175:21 *190:8 0
16 *175:21 *210:10 0
17 *175:42 *188:40 0.000242071
18 *257:CLK *562:A 0
19 *273:D *562:A 0
20 *63:12 *562:A 0
21 *115:16 *175:21 0
*RES
1 *273:Q *175:6 40 
2 *175:6 *594:A 44.0376 
3 *175:6 *175:21 25.7886 
4 *175:21 *562:A 27.4263 
5 *175:21 *175:42 42.2145 
6 *175:42 *486:A0 20 
*END

*D_NET *176 0.00307054
*CONN
*I *557:A I *D sg13g2_dlygate4sd3_1
*I *488:A1 I *D sg13g2_mux2_1
*I *595:A I *D sg13g2_buf_1
*I *275:Q O *D sg13g2_dfrbpq_1
*CAP
1 *557:A 0.000269014
2 *488:A1 0
3 *595:A 0
4 *275:Q 0
5 *176:17 0.000601532
6 *176:10 0.000539853
7 *176:4 0.000872371
8 *557:A *611:A 0
9 *176:10 *206:8 0
10 *176:10 *208:10 0.000450095
11 *176:17 *611:A 0
12 *275:CLK *176:17 0
13 *488:A0 *557:A 3.23417e-05
14 *488:A0 *176:17 1.54008e-05
15 *113:72 *557:A 0
16 *144:31 *557:A 0
17 *144:37 *557:A 1.54008e-05
18 *144:43 *557:A 0
19 *162:12 *176:10 0
20 *162:21 *176:17 0.000274527
*RES
1 *275:Q *176:4 20 
2 *176:4 *176:10 47.2718 
3 *176:10 *595:A 20 
4 *176:4 *176:17 3.5638 
5 *176:17 *488:A1 20 
6 *176:17 *557:A 22.8325 
*END

*D_NET *177 0.00138063
*CONN
*I *596:A I *D sg13g2_buf_1
*I *487:A1 I *D sg13g2_mux2_1
*I *551:A I *D sg13g2_dlygate4sd3_1
*I *277:Q O *D sg13g2_dfrbpq_1
*CAP
1 *596:A 0.000129877
2 *487:A1 0.000235022
3 *551:A 0
4 *277:Q 2.77263e-05
5 *177:10 0.000484941
6 *177:6 0.000407522
7 *596:A *291:RESET_B 0
8 *177:10 *291:RESET_B 0
9 B[10] *596:A 0
10 *267:D *487:A1 0
11 *277:CLK *487:A1 0
12 *277:CLK *177:10 0
13 *291:D *487:A1 8.01392e-05
14 *487:A0 *487:A1 1.54008e-05
*RES
1 *277:Q *177:6 20.3502 
2 *177:6 *177:10 3.0797 
3 *177:10 *551:A 20 
4 *177:10 *487:A1 22.4314 
5 *177:6 *596:A 21.4008 
*END

*D_NET *178 0.0245148
*CONN
*I *597:A I *D sg13g2_buf_1
*I *466:A1 I *D sg13g2_a21o_1
*I *493:S I *D sg13g2_mux2_1
*I *486:S I *D sg13g2_mux2_1
*I *496:S I *D sg13g2_mux2_1
*I *488:S I *D sg13g2_mux2_1
*I *492:S I *D sg13g2_mux2_1
*I *489:S I *D sg13g2_mux2_1
*I *526:X O *D sg13g2_buf_8
*CAP
1 *597:A 0
2 *466:A1 3.54245e-05
3 *493:S 0.000181511
4 *486:S 0
5 *496:S 0
6 *488:S 0
7 *492:S 7.77864e-05
8 *489:S 0.000260846
9 *526:X 0.000122965
10 *178:141 0.00140424
11 *178:133 0.00232549
12 *178:108 0.000367555
13 *178:102 0.00166701
14 *178:81 0.000169729
15 *178:68 0.000581891
16 *178:58 0.0012927
17 *178:45 0.00145117
18 *178:18 0.00118606
19 *178:16 0.00155768
20 *178:14 0.000656536
21 *178:6 0.0013185
22 *489:S *229:30 0
23 *489:S *229:44 0
24 *492:S *207:29 0
25 *492:S *247:8 0
26 *178:6 *229:14 7.98567e-05
27 *178:14 *185:79 0.000928206
28 *178:16 *463:C 0
29 *178:16 *185:66 0
30 *178:16 *185:79 0.00012816
31 *178:16 *229:24 0
32 *178:45 *468:A1 1.53311e-05
33 *178:45 *207:29 0
34 *178:45 *229:44 0
35 *178:45 *229:59 0
36 *178:81 *461:C 0.000231865
37 *178:102 *279:RESET_B 0
38 *178:102 *450:A 0
39 *178:102 *475:C 0
40 *178:102 *207:97 0.000144768
41 *178:108 *213:8 0
42 *178:133 *180:18 0
43 *178:133 *236:8 0
44 *178:141 *180:24 0.000888074
45 *178:141 *181:23 0.000680165
46 *178:141 *181:35 0.000322297
47 *178:141 *195:14 1.54008e-05
48 *178:141 *234:8 0
49 *178:141 *245:12 0.000209756
50 D[4] *178:141 0
51 *265:CLK *178:102 0.000339556
52 *279:D *178:102 0
53 *279:CLK *178:102 0
54 *428:B_N *178:14 0
55 *442:A1 *489:S 0
56 *449:A2 *178:45 0.000121251
57 *449:B1 *178:45 0
58 *451:A2 *178:102 1.69409e-05
59 *466:B1 *466:A1 1.54008e-05
60 *468:B1 *178:45 0
61 *482:B1 *178:81 0
62 *527:A *178:14 0
63 *529:A *178:45 0
64 *570:A *493:S 0
65 *570:A *178:102 0
66 *590:A *493:S 0
67 *17:8 *178:141 0
68 *74:10 *178:133 0.00119171
69 *86:14 *178:102 2.51854e-05
70 *98:8 *178:45 8.02269e-05
71 *98:16 *178:68 7.33225e-05
72 *99:10 *178:6 0
73 *103:29 *489:S 0.000181695
74 *103:29 *178:18 0.000128247
75 *104:10 *489:S 0
76 *104:10 *178:45 0.000145929
77 *107:109 *178:133 0
78 *112:37 *489:S 0
79 *114:71 *178:141 0
80 *115:8 *178:102 0.000177299
81 *115:78 *178:102 4.77702e-05
82 *116:14 *178:133 0
83 *116:25 *178:133 0
84 *131:8 *178:68 0.000231739
85 *133:10 *178:133 0.00225368
86 *133:25 *178:133 0.000106392
87 *133:60 *178:6 0
88 *142:10 *178:102 0
89 *144:6 *178:45 1.54008e-05
90 *144:45 *178:68 0
91 *144:47 *178:68 0
92 *152:10 *178:102 7.99004e-05
93 *162:12 *178:68 0
94 *170:22 *493:S 0
95 *172:6 *178:141 0
96 *174:70 *178:14 0.000906939
97 *174:70 *178:16 7.52158e-05
*RES
1 *526:X *178:6 21.1845 
2 *178:6 *178:14 25.4075 
3 *178:14 *178:16 3.5638 
4 *178:16 *178:18 1.0918 
5 *178:18 *489:S 42.6471 
6 *178:18 *178:45 48.0031 
7 *178:45 *492:S 40.8446 
8 *178:45 *178:58 25.7268 
9 *178:58 *178:68 46.5508 
10 *178:68 *488:S 20 
11 *178:58 *178:81 41.6274 
12 *178:81 *496:S 20 
13 *178:16 *178:102 31.6287 
14 *178:102 *178:108 44.3054 
15 *178:108 *486:S 20 
16 *178:102 *493:S 21.8334 
17 *178:14 *466:A1 40.3193 
18 *178:6 *178:133 33.4518 
19 *178:133 *178:141 34.3621 
20 *178:141 *597:A 20 
*END

*D_NET *179 0.00319474
*CONN
*I *489:A1 I *D sg13g2_mux2_1
*I *574:A I *D sg13g2_dlygate4sd3_1
*I *598:A I *D sg13g2_buf_1
*I *281:Q O *D sg13g2_dfrbpq_1
*CAP
1 *489:A1 0.000179398
2 *574:A 0.000310496
3 *598:A 0.000204947
4 *281:Q 0.000930107
5 *179:24 0.00121505
6 *598:A *612:A 0
7 *598:A *207:39 0.000209899
8 *179:24 *281:RESET_B 0
9 *179:24 *612:A 0
10 *179:24 *207:39 0.000144842
11 *179:24 *227:10 0
12 D[5] *598:A 0
13 *257:D *574:A 0
14 *442:A1 *574:A 0
15 *489:A0 *489:A1 0
16 *489:A0 *179:24 0
17 *562:A *574:A 0
18 *59:10 *489:A1 0
19 *155:10 *489:A1 0
20 *155:10 *179:24 0
21 *155:20 *574:A 0
*RES
1 *281:Q *598:A 42.4926 
2 *281:Q *179:24 47.004 
3 *179:24 *574:A 43.0488 
4 *179:24 *489:A1 41.9055 
*END

*D_NET *180 0.00746397
*CONN
*I *555:A I *D sg13g2_dlygate4sd3_1
*I *490:A1 I *D sg13g2_mux2_1
*I *599:A I *D sg13g2_buf_1
*I *283:Q O *D sg13g2_dfrbpq_1
*CAP
1 *555:A 0
2 *490:A1 0
3 *599:A 0
4 *283:Q 0.000154397
5 *180:44 0.000358913
6 *180:24 0.0013523
7 *180:18 0.00148839
8 *180:10 0.000347217
9 *180:6 0.000724444
10 *180:6 *204:8 0
11 *180:10 *204:8 0
12 *180:18 *204:8 0
13 *180:18 *236:8 0.000234224
14 *180:24 *491:A1 0.00024184
15 *180:24 *495:A1 0.000598567
16 *180:24 *604:A 0
17 *180:24 *186:10 0
18 *180:24 *194:10 1.54008e-05
19 *180:24 *245:12 0
20 *180:44 *194:10 0
21 BN[2] *180:44 0.000307012
22 D[4] *180:24 0
23 *259:CLK *180:10 0.000274642
24 *259:CLK *180:24 0
25 *285:CLK *180:24 0
26 *485:A *180:24 0
27 *114:71 *180:24 0
28 *128:10 *180:6 0
29 *128:10 *180:44 0.000128663
30 *133:34 *180:24 0
31 *167:34 *180:44 0.000349885
32 *168:8 *180:24 0
33 *178:133 *180:18 0
34 *178:141 *180:24 0.000888074
*RES
1 *283:Q *180:6 21.4008 
2 *180:6 *180:10 2.3999 
3 *180:10 *180:18 41.6274 
4 *180:18 *180:24 33.8947 
5 *180:24 *599:A 40 
6 *180:10 *490:A1 20 
7 *180:6 *180:44 44.3775 
8 *180:44 *555:A 20 
*END

*D_NET *181 0.00553715
*CONN
*I *548:A I *D sg13g2_dlygate4sd3_1
*I *600:A I *D sg13g2_buf_1
*I *491:A1 I *D sg13g2_mux2_1
*I *285:Q O *D sg13g2_dfrbpq_1
*CAP
1 *548:A 0
2 *600:A 0
3 *491:A1 0.000226935
4 *285:Q 0.000198315
5 *181:35 0.000727017
6 *181:23 0.0010915
7 *181:8 0.000789734
8 *181:23 *195:14 0.00069562
9 *181:35 *195:14 0.000242213
10 *181:35 *202:8 0
11 BN[11] *181:8 0
12 B[3] *181:35 0
13 D[4] *181:35 0.000241425
14 *485:A *491:A1 0
15 *485:A *181:35 0
16 *491:A0 *491:A1 8.00842e-05
17 *491:A0 *181:8 0
18 *625:A *181:35 0
19 *178:141 *181:23 0.000680165
20 *178:141 *181:35 0.000322297
21 *180:24 *491:A1 0.00024184
*RES
1 *285:Q *181:8 41.8334 
2 *181:8 *491:A1 42.4617 
3 *181:8 *181:23 24.6453 
4 *181:23 *181:35 47.9825 
5 *181:35 *600:A 20 
6 *181:23 *548:A 20 
*END

*D_NET *182 0.00366989
*CONN
*I *492:A1 I *D sg13g2_mux2_1
*I *583:A I *D sg13g2_dlygate4sd3_1
*I *601:A I *D sg13g2_buf_1
*I *287:Q O *D sg13g2_dfrbpq_1
*CAP
1 *492:A1 0.000638579
2 *583:A 7.82188e-05
3 *601:A 0.000222405
4 *287:Q 3.02926e-05
5 *182:23 0.00102532
6 *182:8 0.00056122
7 *492:A1 *207:29 0
8 *492:A1 *217:10 0
9 *492:A1 *238:12 0.000614694
10 *583:A *207:50 0.000144331
11 *449:A2 *492:A1 0
12 *514:A *601:A 0
13 *23:12 *601:A 0.000209899
14 *23:12 *182:8 0
15 *113:27 *583:A 0.000144929
*RES
1 *287:Q *182:8 40.3193 
2 *182:8 *601:A 42.4926 
3 *182:8 *182:23 3.3887 
4 *182:23 *583:A 40.9682 
5 *182:23 *492:A1 47.6838 
*END

*D_NET *183 0.00292909
*CONN
*I *553:A I *D sg13g2_dlygate4sd3_1
*I *602:A I *D sg13g2_buf_1
*I *493:A1 I *D sg13g2_mux2_1
*I *289:Q O *D sg13g2_dfrbpq_1
*CAP
1 *553:A 0.000110416
2 *602:A 0.000266998
3 *493:A1 0.00019729
4 *289:Q 7.01488e-05
5 *183:18 0.000831895
6 *183:10 0.000548172
7 *602:A *277:RESET_B 0
8 *602:A *616:A 0
9 *183:18 *253:RESET_B 0
10 B[5] *602:A 0
11 D[6] *602:A 0
12 *277:CLK *553:A 0.000373299
13 *277:CLK *183:10 0.000128248
14 *569:A *183:10 4.77702e-05
15 *569:A *183:18 0.000242213
16 *590:A *602:A 0
17 *57:10 *493:A1 0
18 *57:10 *602:A 0
19 *57:10 *183:18 0
20 *158:37 *553:A 0
21 *170:22 *493:A1 0.000112642
22 *170:22 *602:A 0
23 *170:22 *183:18 0
*RES
1 *289:Q *183:10 40.9167 
2 *183:10 *183:18 43.9758 
3 *183:18 *493:A1 42.3381 
4 *183:18 *602:A 42.9149 
5 *183:10 *553:A 41.8334 
*END

*D_NET *184 0.00222485
*CONN
*I *603:A I *D sg13g2_buf_1
*I *567:A I *D sg13g2_dlygate4sd3_1
*I *494:A1 I *D sg13g2_mux2_1
*I *291:Q O *D sg13g2_dfrbpq_1
*CAP
1 *603:A 0.000297089
2 *567:A 0.000114984
3 *494:A1 0.000111316
4 *291:Q 6.72956e-05
5 *184:21 0.00066295
6 *184:8 0.000429488
7 *603:A *609:A 0
8 *603:A *617:A 0
9 *184:8 *199:8 0.000111037
10 *184:21 *617:A 0
11 B[6] *603:A 0
12 *560:A *567:A 4.68833e-05
13 *560:A *603:A 0
14 *621:A *494:A1 8.0001e-05
15 *621:A *184:8 0.000111037
16 *134:8 *184:21 0
17 *171:14 *567:A 0.000112429
18 *171:22 *494:A1 8.0334e-05
19 *171:22 *184:21 0
*RES
1 *291:Q *184:8 40.7519 
2 *184:8 *494:A1 41.133 
3 *184:8 *184:21 2.3278 
4 *184:21 *567:A 41.2875 
5 *184:21 *603:A 43.296 
*END

*D_NET *185 0.0117165
*CONN
*I *430:B I *D sg13g2_or2_1
*I *501:A1 I *D sg13g2_o21ai_1
*I *434:A I *D sg13g2_nor2b_2
*I *440:B_N I *D sg13g2_nor2b_2
*I *465:B I *D sg13g2_nand4_1
*I *429:B I *D sg13g2_nor2_2
*I *499:A1 I *D sg13g2_a21oi_1
*I *500:A1 I *D sg13g2_o21ai_1
*I *535:X O *D sg13g2_buf_8
*CAP
1 *430:B 0
2 *501:A1 0
3 *434:A 0
4 *440:B_N 0
5 *465:B 0
6 *429:B 0
7 *499:A1 0
8 *500:A1 0
9 *535:X 0.000791005
10 *185:79 0.00044689
11 *185:66 0.000224641
12 *185:60 0.0006958
13 *185:53 0.000753888
14 *185:40 0.000951694
15 *185:36 0.000521389
16 *185:24 0.000141389
17 *185:14 0.000180254
18 *185:12 0.000435426
19 *185:8 0.000888251
20 *185:8 *211:12 0
21 *185:66 *207:14 0
22 *185:79 *229:18 0
23 *466:B1 *185:79 1.54008e-05
24 *499:A2 *185:14 8.00842e-05
25 *499:A2 *185:24 1.54008e-05
26 *499:A2 *185:36 4.77702e-05
27 *500:B1 *185:24 0
28 *501:A2 *185:36 0.000129571
29 *531:A *185:53 0
30 *74:10 *185:79 0.00023464
31 *87:16 *185:36 0.000355409
32 *87:29 *185:8 0.000288747
33 *87:29 *185:12 0.00018387
34 *87:37 *185:8 0
35 *88:10 *185:24 0.000237686
36 *90:8 *185:40 0
37 *90:8 *185:53 0
38 *95:26 *185:8 0.000179315
39 *100:8 *185:53 0
40 *100:16 *185:53 0.000339211
41 *103:8 *185:66 0.000128248
42 *107:31 *185:66 7.52149e-05
43 *107:31 *185:79 0.000176511
44 *113:72 *185:24 0
45 *121:73 *185:53 0
46 *133:10 *185:79 0
47 *144:31 *185:14 6.48261e-05
48 *144:31 *185:24 1.54008e-05
49 *144:31 *185:36 6.48781e-05
50 *147:8 *185:8 0.000506916
51 *163:60 *185:36 0.000209456
52 *163:75 *185:36 0.000209083
53 *174:14 *185:8 0.000832203
54 *174:27 *185:8 0
55 *174:49 *185:53 0
56 *174:57 *185:53 4.77425e-05
57 *174:57 *185:60 4.77425e-05
58 *174:57 *185:79 1.54008e-05
59 *174:70 *185:79 0.000128741
60 *178:14 *185:79 0.000928206
61 *178:16 *185:66 0
62 *178:16 *185:79 0.00012816
*RES
1 *535:X *185:8 49.4966 
2 *185:8 *185:12 21.0918 
3 *185:12 *185:14 0.5356 
4 *185:14 *185:24 41.7304 
5 *185:24 *500:A1 20 
6 *185:14 *499:A1 20 
7 *185:12 *185:36 3.5638 
8 *185:36 *185:40 22.0806 
9 *185:40 *429:B 40 
10 *185:40 *185:53 27.2203 
11 *185:53 *465:B 20 
12 *185:53 *185:60 0.3193 
13 *185:60 *185:66 42.3278 
14 *185:66 *440:B_N 20 
15 *185:60 *185:79 46.4478 
16 *185:79 *434:A 20 
17 *185:36 *501:A1 20 
18 *185:8 *430:B 40 
*END

*D_NET *186 0.00417237
*CONN
*I *604:A I *D sg13g2_buf_1
*I *543:A I *D sg13g2_dlygate4sd3_1
*I *495:A1 I *D sg13g2_mux2_1
*I *293:Q O *D sg13g2_dfrbpq_1
*CAP
1 *604:A 0.000986057
2 *543:A 0.000179876
3 *495:A1 0.000492493
4 *293:Q 2.77263e-05
5 *186:10 0.000765393
6 *186:6 0.00110681
7 *495:A1 *245:12 0
8 *604:A *194:10 0
9 *604:A *204:8 0
10 *604:A *225:10 0
11 BN[2] *543:A 0
12 BN[2] *604:A 0
13 BN[6] *604:A 0
14 D[3] *543:A 0
15 D[3] *604:A 0
16 D[7] *604:A 0
17 *259:CLK *495:A1 1.54556e-05
18 *259:CLK *604:A 0
19 *269:CLK *495:A1 0
20 *490:A0 *543:A 0
21 *17:8 *604:A 0
22 *17:8 *186:10 0
23 *128:10 *604:A 0
24 *133:25 *495:A1 0
25 *167:34 *604:A 0
26 *180:24 *495:A1 0.000598567
27 *180:24 *604:A 0
28 *180:24 *186:10 0
*RES
1 *293:Q *186:6 20.3502 
2 *186:6 *186:10 20.7519 
3 *186:10 *495:A1 45.1912 
4 *186:10 *543:A 42.0806 
5 *186:6 *604:A 29.6626 
*END

*D_NET *187 0.00554567
*CONN
*I *547:A I *D sg13g2_dlygate4sd3_1
*I *496:A1 I *D sg13g2_mux2_1
*I *605:A I *D sg13g2_buf_1
*I *295:Q O *D sg13g2_dfrbpq_1
*CAP
1 *547:A 0.000467671
2 *496:A1 0
3 *605:A 0
4 *295:Q 3.4601e-05
5 *187:31 0.000543731
6 *187:24 0.000816219
7 *187:8 0.000926879
8 *547:A *461:C 0.000549908
9 *547:A *229:75 0
10 *547:A *229:85 0.000178231
11 *187:24 *295:RESET_B 0
12 *187:24 *461:C 0.000592914
13 *187:24 *481:C 0.000237643
14 *187:24 *619:A 0
15 *187:24 *201:8 0.000197697
16 *187:24 *208:10 0
17 *187:24 *212:10 0.000274582
18 *187:31 *461:C 0.000292222
19 *500:B1 *547:A 8.02269e-05
20 *593:A *187:24 0
21 *23:12 *187:24 0
22 *66:12 *187:24 0.000112541
23 *75:10 *547:A 0
24 *95:67 *187:24 0
25 *95:67 *187:31 0
26 *113:72 *547:A 0.000240607
27 *121:91 *547:A 0
28 *144:31 *547:A 0
29 *173:8 *187:24 0
*RES
1 *295:Q *187:8 40.3193 
2 *187:8 *187:24 30.7635 
3 *187:24 *605:A 20 
4 *187:8 *187:31 1.339 
5 *187:31 *496:A1 40 
6 *187:31 *547:A 45.3354 
*END

*D_NET *188 0.00470872
*CONN
*I *486:A1 I *D sg13g2_mux2_1
*I *565:A I *D sg13g2_dlygate4sd3_1
*I *606:A I *D sg13g2_buf_1
*I *297:Q O *D sg13g2_dfrbpq_1
*CAP
1 *486:A1 0
2 *565:A 0.000177535
3 *606:A 0.000296688
4 *297:Q 0
5 *188:40 0.000673231
6 *188:23 0.0010552
7 *188:6 0.000501117
8 *606:A *608:A 0
9 *606:A *220:10 0.000128334
10 *188:23 *220:10 0.000716077
11 *188:40 *220:10 0
12 B[9] *606:A 0
13 D[10] *606:A 0.000177299
14 *257:CLK *565:A 0.000306984
15 *257:CLK *188:40 3.23417e-05
16 *273:D *188:40 0
17 *515:A *188:40 0
18 *562:A *565:A 0
19 *562:A *188:40 0.000273739
20 *594:A *606:A 1.54556e-05
21 *115:16 *188:40 0
22 *115:18 *188:40 0.000112648
23 *175:42 *188:40 0.000242071
*RES
1 *297:Q *188:6 40 
2 *188:6 *606:A 43.2754 
3 *188:6 *188:23 23.3166 
4 *188:23 *565:A 22.0497 
5 *188:23 *188:40 47.1379 
6 *188:40 *486:A1 20 
*END

*D_NET *189 0.0014186
*CONN
*I *607:A I *D sg13g2_buf_1
*I *485:X O *D sg13g2_or2_1
*CAP
1 *607:A 3.57588e-05
2 *485:X 0.000262813
3 *189:8 0.000298572
4 *189:8 *485:B 0.000130162
5 *189:8 *620:A 0.000507313
6 *189:8 *202:10 0.000183978
*RES
1 *485:X *189:8 43.5638 
2 *189:8 *607:A 40.3193 
*END

*D_NET *190 0.00231699
*CONN
*I *608:A I *D sg13g2_buf_1
*I *486:X O *D sg13g2_mux2_1
*CAP
1 *608:A 0.000513928
2 *486:X 0.000474787
3 *190:8 0.000988715
4 *608:A *210:10 0
5 *608:A *220:10 0.000339556
6 *608:A *231:8 0
7 D[10] *608:A 0
8 *594:A *608:A 0
9 *594:A *190:8 0
10 *606:A *608:A 0
11 *175:21 *190:8 0
*RES
1 *486:X *190:8 45.5414 
2 *190:8 *608:A 45.1094 
*END

*D_NET *191 0.00297903
*CONN
*I *609:A I *D sg13g2_buf_1
*I *487:X O *D sg13g2_mux2_1
*CAP
1 *609:A 0.000535589
2 *487:X 0.000735933
3 *191:8 0.00127152
4 *191:8 *617:A 0
5 B[6] *609:A 0
6 *560:A *609:A 0
7 *603:A *609:A 0
8 *110:14 *609:A 0.000435981
9 *116:52 *191:8 0
10 *133:73 *191:8 0
11 *158:37 *191:8 0
12 *171:8 *191:8 0
13 *171:14 *609:A 0
14 *171:22 *191:8 0
*RES
1 *487:X *191:8 47.0246 
2 *191:8 *609:A 45.2942 
*END

*D_NET *192 0.000887836
*CONN
*I *611:A I *D sg13g2_buf_1
*I *488:X O *D sg13g2_mux2_1
*CAP
1 *611:A 0.000443918
2 *488:X 0.000443918
3 *523:D *611:A 0
4 *557:A *611:A 0
5 *588:A *611:A 0
6 *144:43 *611:A 0
7 *161:12 *611:A 0
8 *176:17 *611:A 0
*RES
1 *488:X *611:A 44.5629 
*END

*D_NET *193 0.00393884
*CONN
*I *612:A I *D sg13g2_buf_1
*I *489:X O *D sg13g2_mux2_1
*CAP
1 *612:A 0.000268934
2 *489:X 0.000389317
3 *193:8 0.000658251
4 *612:A *207:39 0
5 *612:A *227:10 8.01116e-05
6 B[1] *612:A 0
7 D[2] *612:A 0
8 *483:B *193:8 0
9 *489:A0 *193:8 0.00119611
10 *598:A *612:A 0
11 *623:A *193:8 0.000181608
12 *73:8 *193:8 0.000876754
13 *121:37 *193:8 0
14 *166:17 *193:8 0.000287758
15 *179:24 *612:A 0
*RES
1 *489:X *193:8 47.519 
2 *193:8 *612:A 42.3661 
*END

*D_NET *194 0.00194078
*CONN
*I *613:A I *D sg13g2_buf_1
*I *490:X O *D sg13g2_mux2_1
*CAP
1 *613:A 0.000242283
2 *490:X 0.00039728
3 *194:10 0.000639563
4 BN[2] *613:A 0.00037181
5 D[3] *613:A 0
6 *259:CLK *194:10 0.00027444
7 *490:A0 *194:10 0
8 *604:A *194:10 0
9 *22:12 *613:A 0
10 *167:10 *194:10 0
11 *180:24 *194:10 1.54008e-05
12 *180:44 *194:10 0
*RES
1 *490:X *194:10 44.1612 
2 *194:10 *613:A 42.4823 
*END

*D_NET *195 0.00361112
*CONN
*I *614:A I *D sg13g2_buf_1
*I *491:X O *D sg13g2_mux2_1
*CAP
1 *614:A 0
2 *491:X 0.000949678
3 *195:14 0.000949678
4 *195:14 *200:14 0
5 *195:14 *222:10 0.000533566
6 B[11] *195:14 0.000145105
7 B[3] *195:14 0
8 *31:10 *195:14 7.98567e-05
9 *178:141 *195:14 1.54008e-05
10 *181:23 *195:14 0.00069562
11 *181:35 *195:14 0.000242213
*RES
1 *491:X *195:14 30.3412 
2 *195:14 *614:A 20 
*END

*D_NET *196 0.0130132
*CONN
*I *454:B I *D sg13g2_nand4_1
*I *471:B I *D sg13g2_nand4_1
*I *479:B I *D sg13g2_nand4_1
*I *438:B I *D sg13g2_nand4_1
*I *445:B I *D sg13g2_nand4_1
*I *536:X O *D sg13g2_buf_1
*CAP
1 *454:B 0
2 *471:B 0.000264118
3 *479:B 0
4 *438:B 0
5 *445:B 0
6 *536:X 0.000532312
7 *196:70 0.000543396
8 *196:51 0.000535514
9 *196:43 0.00100645
10 *196:39 0.000873481
11 *196:35 0.00105024
12 *196:14 0.000627819
13 *196:6 0.000791717
14 *471:B *269:D 0
15 *471:B *471:D 0
16 *196:6 *229:101 0.00024131
17 *196:14 *445:C 0.000566138
18 *196:35 *229:101 4.75151e-05
19 *196:39 *454:C 0.000532399
20 *196:39 *240:10 0
21 *196:70 *240:31 0.000181608
22 *196:70 *245:12 0.000521567
23 *438:A *196:6 8.01995e-05
24 *444:A2 *196:70 8.00842e-05
25 *445:A *196:14 0
26 *454:A *196:39 0
27 *455:A2 *196:39 0
28 *480:A2 *196:51 0
29 *480:B1 *196:43 0.000371967
30 *480:B1 *196:70 0.000287672
31 *511:A *471:B 4.77425e-05
32 *513:A *471:B 0
33 *533:A *196:51 0.000209729
34 *540:A *196:39 0
35 *46:10 *196:14 0
36 *48:10 *196:51 0.000112426
37 *79:8 *196:51 0
38 *97:10 *196:39 0.000596284
39 *97:18 *471:B 2.70686e-05
40 *97:33 *196:39 0
41 *97:33 *196:43 0
42 *99:63 *471:B 0.000209844
43 *102:8 *196:14 0.000939834
44 *106:10 *196:14 0.000501224
45 *107:12 *196:35 0
46 *107:12 *196:39 0
47 *107:25 *196:39 0
48 *107:109 *471:B 0
49 *112:50 *196:43 0
50 *112:50 *196:70 0
51 *114:8 *196:14 0.00032371
52 *114:14 *196:14 0.000237643
53 *118:23 *196:39 0
54 *120:15 *196:6 0
55 *158:8 *196:43 0.000341205
56 *163:10 *196:43 0.000234224
57 *174:27 *196:6 9.67976e-05
*RES
1 *536:X *196:6 21.8334 
2 *196:6 *196:14 48.7962 
3 *196:14 *445:B 20 
4 *196:6 *438:B 20 
5 *536:X *196:35 43.173 
6 *196:35 *196:39 27.2409 
7 *196:39 *196:43 23.3166 
8 *196:43 *196:51 44.841 
9 *196:51 *479:B 40 
10 *196:43 *196:70 44.2745 
11 *196:70 *471:B 43.0591 
12 *196:39 *454:B 20 
*END

*D_NET *197 0.00160985
*CONN
*I *615:A I *D sg13g2_buf_1
*I *492:X O *D sg13g2_mux2_1
*CAP
1 *615:A 3.53641e-05
2 *492:X 0.000769562
3 *197:8 0.000804926
4 *197:8 *207:29 0
5 *197:8 *207:39 0
6 *197:8 *221:10 0
7 D[5] *615:A 0
8 *492:A0 *197:8 0
9 *169:12 *615:A 0
10 *169:23 *197:8 0
*RES
1 *492:X *197:8 47.2718 
2 *197:8 *615:A 40.3193 
*END

*D_NET *198 0.000371755
*CONN
*I *616:A I *D sg13g2_buf_1
*I *493:X O *D sg13g2_mux2_1
*CAP
1 *616:A 0.000161921
2 *493:X 0.000161921
3 BN[5] *616:A 0
4 D[6] *616:A 4.79124e-05
5 *590:A *616:A 0
6 *602:A *616:A 0
*RES
1 *493:X *616:A 41.751 
*END

*D_NET *199 0.00212213
*CONN
*I *617:A I *D sg13g2_buf_1
*I *494:X O *D sg13g2_mux2_1
*CAP
1 *617:A 0.000717939
2 *494:X 0.000279895
3 *199:8 0.000997834
4 *591:A *617:A 0
5 *603:A *617:A 0
6 *621:A *199:8 1.54282e-05
7 *22:8 *617:A 0
8 *110:14 *199:8 0
9 *171:8 *617:A 0
10 *171:22 *617:A 0
11 *184:8 *199:8 0.000111037
12 *184:21 *617:A 0
13 *191:8 *617:A 0
*RES
1 *494:X *199:8 42.4823 
2 *199:8 *617:A 48.2606 
*END

*D_NET *200 0.0032557
*CONN
*I *618:A I *D sg13g2_buf_1
*I *495:X O *D sg13g2_mux2_1
*CAP
1 *618:A 0
2 *495:X 0.00014834
3 *200:20 6.04282e-05
4 *200:14 0.00124507
5 *200:8 0.00133298
6 *200:8 *245:12 0
7 *200:14 *222:10 0
8 *200:14 *234:8 0
9 B[11] *200:14 0
10 B[3] *200:14 0
11 *592:A *200:14 0
12 *625:A *200:14 0
13 *41:13 *200:8 0
14 *168:34 *200:14 0.000468883
15 *195:14 *200:14 0
*RES
1 *495:X *200:8 41.339 
2 *200:8 *200:14 30.6193 
3 *200:14 *200:20 40.5974 
4 *200:20 *618:A 20 
*END

*D_NET *201 0.00322372
*CONN
*I *619:A I *D sg13g2_buf_1
*I *496:X O *D sg13g2_mux2_1
*CAP
1 *619:A 0.000206123
2 *496:X 0.000640514
3 *201:8 0.000846636
4 *619:A *295:RESET_B 0
5 *201:8 *461:C 0.000722883
6 *201:8 *481:C 0.000237686
7 *482:B1 *201:8 0
8 *23:12 *619:A 0.000372182
9 *187:24 *619:A 0
10 *187:24 *201:8 0.000197697
*RES
1 *496:X *201:8 47.519 
2 *201:8 *619:A 42.4823 
*END

*D_NET *202 0.00333958
*CONN
*I *620:A I *D sg13g2_buf_1
*I *571:A I *D sg13g2_dlygate4sd3_1
*I *508:A I *D sg13g2_buf_1
*I *485:B I *D sg13g2_or2_1
*I *255:Q O *D sg13g2_dfrbpq_1
*CAP
1 *620:A 0.000318785
2 *571:A 0.000392542
3 *508:A 0
4 *485:B 0.000109173
5 *255:Q 0.000125651
6 *202:23 0.000392542
7 *202:10 0.000164445
8 *202:8 0.000499708
9 B[3] *620:A 8.01116e-05
10 D[4] *571:A 0
11 D[4] *202:8 0
12 *485:A *571:A 4.77425e-05
13 *625:A *620:A 8.01116e-05
14 *25:12 *620:A 0.000130011
15 *165:10 *571:A 0
16 *165:10 *202:8 0.0001773
17 *181:35 *202:8 0
18 *189:8 *485:B 0.000130162
19 *189:8 *620:A 0.000507313
20 *189:8 *202:10 0.000183978
*RES
1 *255:Q *202:8 41.4008 
2 *202:8 *202:10 0.8446 
3 *202:10 *485:B 41.4111 
4 *202:10 *202:23 20 
5 *202:23 *508:A 20 
6 *202:23 *571:A 23.7801 
7 *202:8 *620:A 44.4908 
*END

*D_NET *203 0.00129362
*CONN
*I *279:RESET_B I *D sg13g2_dfrbpq_2
*I *280:L_HI O *D sg13g2_tiehi
*CAP
1 *279:RESET_B 0.000574794
2 *280:L_HI 0.000574794
3 *279:RESET_B *450:A 0
4 *279:RESET_B *207:97 0
5 *107:56 *279:RESET_B 0
6 *152:10 *279:RESET_B 0.000144027
7 *178:102 *279:RESET_B 0
*RES
1 *280:L_HI *279:RESET_B 45.1294 
*END

*D_NET *204 0.00347184
*CONN
*I *293:RESET_B I *D sg13g2_dfrbpq_1
*I *294:L_HI O *D sg13g2_tiehi
*CAP
1 *293:RESET_B 0.000358811
2 *294:L_HI 0.00072775
3 *204:8 0.00108656
4 *293:RESET_B *471:D 0.000176393
5 *293:RESET_B *477:C 0.000424449
6 *293:RESET_B *218:40 7.51285e-05
7 *293:RESET_B *236:8 0
8 *204:8 *259:RESET_B 0
9 *204:8 *214:10 0
10 *204:8 *225:10 0
11 *259:CLK *204:8 0
12 *490:S *204:8 0
13 *604:A *204:8 0
14 *107:95 *293:RESET_B 0.000446352
15 *110:14 *293:RESET_B 0.000176393
16 *133:10 *293:RESET_B 0
17 *180:6 *204:8 0
18 *180:10 *204:8 0
19 *180:18 *204:8 0
*RES
1 *294:L_HI *204:8 47.1529 
2 *204:8 *293:RESET_B 44.7483 
*END

*D_NET *205 0.000415158
*CONN
*I *277:RESET_B I *D sg13g2_dfrbpq_1
*I *278:L_HI O *D sg13g2_tiehi
*CAP
1 *277:RESET_B 0.000199851
2 *278:L_HI 0.000199851
3 B[5] *277:RESET_B 1.54556e-05
4 *277:CLK *277:RESET_B 0
5 *602:A *277:RESET_B 0
*RES
1 *278:L_HI *277:RESET_B 42.1836 
*END

*D_NET *206 0.00122771
*CONN
*I *251:RESET_B I *D sg13g2_dfrbpq_1
*I *252:L_HI O *D sg13g2_tiehi
*CAP
1 *251:RESET_B 5.84434e-05
2 *252:L_HI 0.000196087
3 *206:8 0.00025453
4 *275:CLK *251:RESET_B 0
5 *162:12 *206:8 0.000718648
6 *176:10 *206:8 0
*RES
1 *252:L_HI *206:8 43.3166 
2 *206:8 *251:RESET_B 40.5356 
*END

*D_NET *207 0.0201284
*CONN
*I *465:D I *D sg13g2_nand4_1
*I *463:C I *D sg13g2_nand3_1
*I *475:C I *D sg13g2_nand3_1
*I *467:C I *D sg13g2_nand3_1
*I *461:C I *D sg13g2_nand3_1
*I *481:C I *D sg13g2_nand3_1
*I *483:C I *D sg13g2_nand3_1
*I *473:C I *D sg13g2_nand3_1
*I *537:X O *D sg13g2_buf_8
*CAP
1 *465:D 3.34444e-05
2 *463:C 0.000704122
3 *475:C 0.000303229
4 *467:C 8.41034e-05
5 *461:C 0.000365603
6 *481:C 0.000446769
7 *483:C 0
8 *473:C 8.89581e-05
9 *537:X 0.000605133
10 *207:97 0.00128389
11 *207:50 0.00128058
12 *207:39 0.00122119
13 *207:29 0.00247624
14 *207:18 0.00132906
15 *207:16 0.000562806
16 *207:14 0.000519082
17 *207:10 0.000855674
18 *463:C *229:18 0.000288087
19 *475:C *229:24 0
20 *481:C *208:10 8.03417e-05
21 *481:C *212:10 0
22 *207:10 *233:10 0
23 *207:29 *217:10 0
24 *207:29 *238:12 0
25 *207:39 *217:10 0
26 *207:39 *221:10 0
27 *207:39 *227:10 0
28 *207:39 *231:8 0
29 *207:50 *238:12 0
30 D[5] *207:39 0
31 *279:RESET_B *207:97 0
32 *279:D *475:C 0
33 *437:B1 *463:C 0
34 *448:C *473:C 1.54556e-05
35 *450:C *463:C 0
36 *459:B1 *207:39 0
37 *463:B *463:C 0.000339583
38 *466:B1 *463:C 0
39 *467:B *467:C 9.07973e-05
40 *475:B *475:C 0.000112541
41 *481:B *481:C 0
42 *482:A2 *481:C 0.000565908
43 *482:B1 *461:C 0
44 *492:A0 *207:29 0
45 *492:A1 *207:29 0
46 *492:S *207:29 0
47 *512:A *475:C 0
48 *528:A *207:18 0
49 *531:A *207:10 0
50 *531:A *207:14 0
51 *547:A *461:C 0.000549908
52 *583:A *207:50 0.000144331
53 *598:A *207:39 0.000209899
54 *612:A *207:39 0
55 *66:12 *481:C 0
56 *81:8 *207:29 0
57 *100:16 *465:D 4.77425e-05
58 *103:8 *207:14 0
59 *103:25 *207:97 0.000247106
60 *107:31 *463:C 7.9225e-05
61 *107:31 *207:10 0
62 *107:56 *207:14 0.00023464
63 *107:60 *473:C 0.000144683
64 *107:60 *207:18 0.000712135
65 *112:12 *207:10 4.77425e-05
66 *112:37 *475:C 8.00426e-05
67 *112:37 *207:97 0
68 *112:50 *207:10 4.77425e-05
69 *113:27 *207:50 0
70 *113:34 *207:50 0.000144771
71 *113:48 *207:50 0.00020871
72 *113:72 *461:C 4.77425e-05
73 *121:37 *207:39 0
74 *126:8 *463:C 0.000176741
75 *155:6 *207:39 0
76 *157:94 *207:10 0
77 *158:8 *207:10 0
78 *159:6 *207:18 0
79 *163:60 *461:C 4.77425e-05
80 *163:75 *473:C 8.02267e-05
81 *163:86 *467:C 0
82 *163:86 *207:18 0
83 *169:12 *207:39 0.000177212
84 *169:23 *207:39 8.01995e-05
85 *174:49 *207:18 0
86 *174:57 *207:10 0.00018128
87 *174:57 *207:14 0.000181192
88 *178:16 *463:C 0
89 *178:45 *207:29 0
90 *178:81 *461:C 0.000231865
91 *178:102 *475:C 0
92 *178:102 *207:97 0.000144768
93 *179:24 *207:39 0.000144842
94 *185:66 *207:14 0
95 *187:24 *461:C 0.000592914
96 *187:24 *481:C 0.000237643
97 *187:31 *461:C 0.000292222
98 *197:8 *207:29 0
99 *197:8 *207:39 0
100 *201:8 *461:C 0.000722883
101 *201:8 *481:C 0.000237686
*RES
1 *537:X *207:10 46.386 
2 *207:10 *207:14 22.575 
3 *207:14 *207:16 0.3502 
4 *207:16 *207:18 5.0779 
5 *207:18 *473:C 20.9682 
6 *207:18 *207:29 28.2606 
7 *207:29 *207:39 32.6222 
8 *207:39 *483:C 20 
9 *207:29 *207:50 44.6453 
10 *207:50 *481:C 45.6547 
11 *207:50 *461:C 46.8495 
12 *207:16 *467:C 21.2592 
13 *207:14 *207:97 23.1518 
14 *207:97 *475:C 42.7089 
15 *207:97 *463:C 47.1173 
16 *207:10 *465:D 40.3193 
*END

*D_NET *208 0.00197064
*CONN
*I *275:RESET_B I *D sg13g2_dfrbpq_1
*I *276:L_HI O *D sg13g2_tiehi
*CAP
1 *275:RESET_B 0
2 *276:L_HI 0.000720104
3 *208:10 0.000720104
4 *208:10 *212:10 0
5 *481:C *208:10 8.03417e-05
6 *162:12 *208:10 0
7 *176:10 *208:10 0.000450095
8 *187:24 *208:10 0
*RES
1 *276:L_HI *208:10 48.9816 
2 *208:10 *275:RESET_B 40 
*END

*D_NET *209 0.000893495
*CONN
*I *291:RESET_B I *D sg13g2_dfrbpq_1
*I *292:L_HI O *D sg13g2_tiehi
*CAP
1 *291:RESET_B 0.000341812
2 *292:L_HI 0.000341812
3 B[10] *291:RESET_B 0
4 *267:D *291:RESET_B 0
5 *291:D *291:RESET_B 0.000209871
6 *596:A *291:RESET_B 0
7 *177:10 *291:RESET_B 0
*RES
1 *292:L_HI *291:RESET_B 43.5638 
*END

*D_NET *210 0.00138635
*CONN
*I *273:RESET_B I *D sg13g2_dfrbpq_1
*I *274:L_HI O *D sg13g2_tiehi
*CAP
1 *273:RESET_B 0
2 *274:L_HI 0.000441252
3 *210:10 0.000441252
4 *210:10 *220:10 0
5 *608:A *210:10 0
6 *115:16 *210:10 0.000503849
7 *175:21 *210:10 0
*RES
1 *274:L_HI *210:10 45.15 
2 *210:10 *273:RESET_B 40 
*END

*D_NET *211 0.0012449
*CONN
*I *517:RESET_B I *D sg13g2_dfrbpq_1
*I *518:L_HI O *D sg13g2_tiehi
*CAP
1 *517:RESET_B 0.000174679
2 *518:L_HI 0.000316633
3 *211:12 0.000491312
4 *438:A *517:RESET_B 0
5 *506:A2 *517:RESET_B 0
6 *87:37 *211:12 0.000182859
7 *114:14 *517:RESET_B 0
8 *114:22 *517:RESET_B 0
9 *121:121 *517:RESET_B 7.94189e-05
10 *121:121 *211:12 0
11 *161:12 *211:12 0
12 *185:8 *211:12 0
*RES
1 *518:L_HI *211:12 43.1518 
2 *211:12 *517:RESET_B 41.4694 
*END

*D_NET *212 0.00197818
*CONN
*I *271:RESET_B I *D sg13g2_dfrbpq_1
*I *272:L_HI O *D sg13g2_tiehi
*CAP
1 *271:RESET_B 0
2 *272:L_HI 0.000424254
3 *212:10 0.000424254
4 *481:B *212:10 0.000454452
5 *481:C *212:10 0
6 *95:67 *212:10 0.000400636
7 *187:24 *212:10 0.000274582
8 *208:10 *212:10 0
*RES
1 *272:L_HI *212:10 45.8916 
2 *212:10 *271:RESET_B 40 
*END

*D_NET *213 0.00157468
*CONN
*I *289:RESET_B I *D sg13g2_dfrbpq_1
*I *290:L_HI O *D sg13g2_tiehi
*CAP
1 *289:RESET_B 0.000448295
2 *290:L_HI 0.00018671
3 *213:8 0.000635005
4 *289:RESET_B *265:RESET_B 0.000304675
5 *515:A *289:RESET_B 0
6 *570:A *289:RESET_B 0
7 *590:A *289:RESET_B 0
8 *178:108 *213:8 0
*RES
1 *290:L_HI *213:8 42.0806 
2 *213:8 *289:RESET_B 44.8416 
*END

*D_NET *214 0.00338699
*CONN
*I *269:RESET_B I *D sg13g2_dfrbpq_1
*I *270:L_HI O *D sg13g2_tiehi
*CAP
1 *269:RESET_B 0
2 *270:L_HI 0.00129877
3 *214:10 0.00129877
4 *214:10 *259:RESET_B 0
5 *477:B *214:10 0.000193005
6 *477:A *214:10 4.77425e-05
7 *513:A *214:10 0
8 *516:A *214:10 0.000209844
9 *107:109 *214:10 0.000338868
10 *116:8 *214:10 0
11 *116:14 *214:10 0
12 *204:8 *214:10 0
*RES
1 *270:L_HI *214:10 32.5454 
2 *214:10 *269:RESET_B 20 
*END

*D_NET *215 0.00187335
*CONN
*I *521:RESET_B I *D sg13g2_dfrbpq_2
*I *522:L_HI O *D sg13g2_tiehi
*CAP
1 *521:RESET_B 0.000190956
2 *522:L_HI 0.00033314
3 *215:8 0.000524096
4 *506:A2 *521:RESET_B 0
5 *70:10 *215:8 0
6 *92:26 *521:RESET_B 0.000241983
7 *92:26 *215:8 0.000399241
8 *121:91 *215:8 0.000183935
9 *149:10 *215:8 0
*RES
1 *522:L_HI *215:8 43.811 
2 *215:8 *521:RESET_B 41.8334 
*END

*D_NET *216 0.00163837
*CONN
*I *267:RESET_B I *D sg13g2_dfrbpq_1
*I *268:L_HI O *D sg13g2_tiehi
*CAP
1 *267:RESET_B 0.000520002
2 *268:L_HI 0.000520002
3 *267:D *267:RESET_B 0
4 *453:B1 *267:RESET_B 0
5 *568:A *267:RESET_B 0.000598365
6 *132:12 *267:RESET_B 0
*RES
1 *268:L_HI *267:RESET_B 46.1182 
*END

*D_NET *217 0.00156732
*CONN
*I *287:RESET_B I *D sg13g2_dfrbpq_1
*I *288:L_HI O *D sg13g2_tiehi
*CAP
1 *287:RESET_B 0
2 *288:L_HI 0.000783661
3 *217:10 0.000783661
4 *217:10 *221:10 0
5 *281:CLK *217:10 0
6 *492:A1 *217:10 0
7 *113:34 *217:10 0
8 *169:12 *217:10 0
9 *207:29 *217:10 0
10 *207:39 *217:10 0
*RES
1 *288:L_HI *217:10 47.9048 
2 *217:10 *287:RESET_B 40 
*END

*D_NET *218 0.0071765
*CONN
*I *477:C I *D sg13g2_nand3_1
*I *471:D I *D sg13g2_nand4_1
*I *479:D I *D sg13g2_nand4_1
*I *469:C I *D sg13g2_nand3_1
*I *538:X O *D sg13g2_buf_1
*CAP
1 *477:C 0.000264216
2 *471:D 0.000586444
3 *479:D 0
4 *469:C 0
5 *538:X 4.75495e-05
6 *218:40 0.00109546
7 *218:26 0.000388005
8 *218:18 0.00073814
9 *218:8 0.000642479
10 *471:D *452:A 8.00842e-05
11 *293:RESET_B *471:D 0.000176393
12 *293:RESET_B *477:C 0.000424449
13 *293:RESET_B *218:40 7.51285e-05
14 *444:A2 *471:D 0.000177298
15 *444:A2 *218:8 7.9225e-05
16 *444:B1 *218:8 7.9225e-05
17 *471:B *471:D 0
18 *477:B *477:C 0.000144685
19 *478:A2 *218:18 8.00842e-05
20 *479:C *218:18 0.000144542
21 *490:S *477:C 0
22 *526:A *218:26 0
23 *65:12 *471:D 0
24 *79:8 *218:26 0
25 *84:8 *218:18 0.00018875
26 *97:18 *471:D 1.54008e-05
27 *99:10 *218:26 7.51285e-05
28 *99:14 *218:26 0.000274297
29 *99:32 *218:26 0.00012816
30 *99:47 *218:26 0.000393736
31 *99:55 *471:D 0.000457165
32 *99:63 *471:D 0.00014499
33 *107:95 *218:18 0.000227595
34 *110:14 *471:D 4.78769e-05
35 *133:10 *218:18 0
36 *133:60 *218:26 0
37 *158:12 *218:18 0
*RES
1 *538:X *218:8 40.5356 
2 *218:8 *218:18 23.9655 
3 *218:18 *218:26 44.4084 
4 *218:26 *469:C 20 
5 *218:18 *479:D 20 
6 *218:8 *218:40 2.1527 
7 *218:40 *471:D 46.4478 
8 *218:40 *477:C 43.0488 
*END

*D_NET *219 0.000892866
*CONN
*I *265:RESET_B I *D sg13g2_dfrbpq_1
*I *266:L_HI O *D sg13g2_tiehi
*CAP
1 *265:RESET_B 0.000294095
2 *266:L_HI 0.000294095
3 *265:D *265:RESET_B 0
4 *289:RESET_B *265:RESET_B 0.000304675
*RES
1 *266:L_HI *265:RESET_B 43.5638 
*END

*D_NET *220 0.00241001
*CONN
*I *297:RESET_B I *D sg13g2_dfrbpq_1
*I *298:L_HI O *D sg13g2_tiehi
*CAP
1 *297:RESET_B 0
2 *298:L_HI 0.000613023
3 *220:10 0.000613023
4 *594:A *220:10 0
5 *606:A *220:10 0.000128334
6 *608:A *220:10 0.000339556
7 *55:12 *220:10 0
8 *188:23 *220:10 0.000716077
9 *188:40 *220:10 0
10 *210:10 *220:10 0
*RES
1 *298:L_HI *220:10 48.0546 
2 *220:10 *297:RESET_B 40 
*END

*D_NET *221 0.00223991
*CONN
*I *263:RESET_B I *D sg13g2_dfrbpq_1
*I *264:L_HI O *D sg13g2_tiehi
*CAP
1 *263:RESET_B 0
2 *264:L_HI 0.000628511
3 *221:10 0.000628511
4 *492:A0 *221:10 0.000428304
5 *169:23 *221:10 0.000554579
6 *197:8 *221:10 0
7 *207:39 *221:10 0
8 *217:10 *221:10 0
*RES
1 *264:L_HI *221:10 46.8186 
2 *221:10 *263:RESET_B 40 
*END

*D_NET *222 0.00199393
*CONN
*I *285:RESET_B I *D sg13g2_dfrbpq_1
*I *286:L_HI O *D sg13g2_tiehi
*CAP
1 *285:RESET_B 0
2 *286:L_HI 0.000730183
3 *222:10 0.000730183
4 *195:14 *222:10 0.000533566
5 *200:14 *222:10 0
*RES
1 *286:L_HI *222:10 47.622 
2 *222:10 *285:RESET_B 40 
*END

*D_NET *223 0.00158143
*CONN
*I *261:RESET_B I *D sg13g2_dfrbpq_1
*I *262:L_HI O *D sg13g2_tiehi
*CAP
1 *261:RESET_B 0.000588968
2 *262:L_HI 0.000588968
3 *472:A2 *261:RESET_B 0
4 *485:A *261:RESET_B 0
5 *511:A *261:RESET_B 0
6 *145:10 *261:RESET_B 0.000403498
*RES
1 *262:L_HI *261:RESET_B 46.4272 
*END

*D_NET *224 0.000532361
*CONN
*I *523:RESET_B I *D sg13g2_dfrbpq_2
*I *524:L_HI O *D sg13g2_tiehi
*CAP
1 *523:RESET_B 4.2428e-05
2 *524:L_HI 0.000143526
3 *224:8 0.000185954
4 *506:B1 *523:RESET_B 8.02269e-05
5 *70:10 *523:RESET_B 8.02269e-05
6 *160:8 *224:8 0
7 *162:29 *224:8 0
*RES
1 *524:L_HI *224:8 41.5862 
2 *224:8 *523:RESET_B 40.5356 
*END

*D_NET *225 0.00135098
*CONN
*I *259:RESET_B I *D sg13g2_dfrbpq_1
*I *260:L_HI O *D sg13g2_tiehi
*CAP
1 *259:RESET_B 0.000372262
2 *260:L_HI 0.000303229
3 *225:10 0.000675492
4 *591:A *225:10 0
5 *604:A *225:10 0
6 *204:8 *259:RESET_B 0
7 *204:8 *225:10 0
8 *214:10 *259:RESET_B 0
*RES
1 *260:L_HI *225:10 42.8325 
2 *225:10 *259:RESET_B 43.7801 
*END

*D_NET *226 0.000457822
*CONN
*I *283:RESET_B I *D sg13g2_dfrbpq_1
*I *284:L_HI O *D sg13g2_tiehi
*CAP
1 *283:RESET_B 4.63393e-05
2 *284:L_HI 0.000142458
3 *226:8 0.000188797
4 *283:D *283:RESET_B 0
5 *621:A *226:8 0
6 *116:52 *226:8 0
7 *140:10 *283:RESET_B 8.02269e-05
8 *140:10 *226:8 0
*RES
1 *284:L_HI *226:8 41.5862 
2 *226:8 *283:RESET_B 40.5356 
*END

*D_NET *227 0.00266898
*CONN
*I *257:RESET_B I *D sg13g2_dfrbpq_1
*I *258:L_HI O *D sg13g2_tiehi
*CAP
1 *257:RESET_B 0
2 *258:L_HI 0.000670207
3 *227:10 0.000670207
4 *489:A0 *227:10 0.00085422
5 *612:A *227:10 8.01116e-05
6 *623:A *227:10 0.000128576
7 *166:17 *227:10 0.000265663
8 *179:24 *227:10 0
9 *207:39 *227:10 0
*RES
1 *258:L_HI *227:10 47.622 
2 *227:10 *257:RESET_B 40 
*END

*D_NET *228 0.000372564
*CONN
*I *295:RESET_B I *D sg13g2_dfrbpq_1
*I *296:L_HI O *D sg13g2_tiehi
*CAP
1 *295:RESET_B 0.000186282
2 *296:L_HI 0.000186282
3 *619:A *295:RESET_B 0
4 *187:24 *295:RESET_B 0
*RES
1 *296:L_HI *295:RESET_B 42.2248 
*END

*D_NET *229 0.0177409
*CONN
*I *436:A I *D sg13g2_nand3_1
*I *450:A I *D sg13g2_nand3_1
*I *441:A I *D sg13g2_nand3_1
*I *458:A I *D sg13g2_nand3_1
*I *438:C I *D sg13g2_nand4_1
*I *448:A I *D sg13g2_nand3_1
*I *456:A I *D sg13g2_nand3_1
*I *432:A I *D sg13g2_nand3_1
*I *539:X O *D sg13g2_buf_8
*CAP
1 *436:A 0.000370396
2 *450:A 0.000376326
3 *441:A 3.08544e-05
4 *458:A 0
5 *438:C 0
6 *448:A 0
7 *456:A 0
8 *432:A 0
9 *539:X 0.000179683
10 *229:101 0.000839458
11 *229:85 0.000248141
12 *229:75 0.000732348
13 *229:65 0.000578819
14 *229:59 0.00148152
15 *229:44 0.00120118
16 *229:30 0.000814042
17 *229:24 0.000637418
18 *229:18 0.00137482
19 *229:14 0.00136316
20 *229:8 0.000620196
21 *229:14 *454:C 0
22 *229:30 *237:10 7.50004e-05
23 *229:44 *468:A1 0.000208458
24 *229:59 *474:A1 0
25 *279:RESET_B *450:A 0
26 *279:CLK *450:A 0
27 *432:B *229:59 0.000598036
28 *436:C *436:A 0
29 *436:C *229:18 0
30 *442:A1 *229:44 0
31 *449:B1 *229:44 4.77425e-05
32 *450:C *450:A 0
33 *463:C *229:18 0.000288087
34 *467:A *229:59 0
35 *468:B1 *229:44 0
36 *469:A *436:A 0.000144657
37 *469:A *229:14 0
38 *474:A2 *229:59 1.69409e-05
39 *475:B *229:30 0
40 *475:C *229:24 0
41 *489:S *229:30 0
42 *489:S *229:44 0
43 *500:B1 *229:65 0
44 *529:A *229:44 0
45 *536:A *229:101 0
46 *547:A *229:75 0
47 *547:A *229:85 0.000178231
48 *579:A *229:24 4.77425e-05
49 *59:10 *229:44 8.005e-05
50 *74:10 *229:14 0
51 *75:10 *229:85 0
52 *81:8 *229:59 0
53 *87:10 *229:101 0.00064415
54 *87:14 *229:101 0.000291942
55 *94:6 *229:14 0.000144843
56 *95:41 *229:75 0.000338012
57 *95:52 *229:85 0.000175712
58 *95:76 *229:65 1.54285e-05
59 *95:89 *229:59 0
60 *95:89 *229:65 9.70004e-05
61 *98:8 *229:59 0.000533353
62 *99:10 *229:14 0
63 *99:32 *436:A 0
64 *103:29 *229:24 0.000159096
65 *103:29 *229:30 0.000126358
66 *104:10 *229:44 0
67 *107:12 *229:8 0
68 *107:12 *229:14 0.000209756
69 *107:35 *229:18 0
70 *108:8 *229:59 0
71 *112:20 *229:75 0
72 *112:37 *441:A 4.77425e-05
73 *112:50 *229:8 0
74 *113:72 *229:75 0.000285318
75 *113:72 *229:85 0
76 *121:12 *450:A 0.000128634
77 *121:12 *229:24 0.000112418
78 *121:14 *229:30 0
79 *121:44 *229:18 0
80 *121:91 *229:85 0
81 *121:121 *229:101 1.54285e-05
82 *133:10 *436:A 0
83 *133:10 *229:18 0.000394981
84 *147:27 *229:101 0.000287499
85 *155:76 *229:44 7.48842e-05
86 *158:12 *436:A 0
87 *161:16 *229:101 0
88 *163:46 *229:101 0.000234239
89 *163:50 *229:101 0.000506729
90 *163:60 *229:75 0
91 *163:86 *229:44 1.54008e-05
92 *163:86 *229:59 0
93 *173:40 *229:75 0
94 *178:6 *229:14 7.98567e-05
95 *178:16 *229:24 0
96 *178:45 *229:44 0
97 *178:45 *229:59 0
98 *178:102 *450:A 0
99 *185:79 *229:18 0
100 *196:6 *229:101 0.00024131
101 *196:35 *229:101 4.75151e-05
*RES
1 *539:X *229:8 41.5862 
2 *229:8 *229:14 44.2127 
3 *229:14 *229:18 26.5302 
4 *229:18 *229:24 23.8213 
5 *229:24 *229:30 21.6583 
6 *229:30 *229:44 46.386 
7 *229:44 *432:A 20 
8 *229:44 *229:59 26.1285 
9 *229:59 *229:65 21.1021 
10 *229:65 *229:75 44.6659 
11 *229:75 *229:85 42.5647 
12 *229:85 *456:A 20 
13 *229:65 *448:A 20 
14 *229:59 *229:101 30.1867 
15 *229:101 *438:C 20 
16 *229:30 *458:A 20 
17 *229:24 *441:A 40.3193 
18 *229:18 *450:A 23.4814 
19 *229:14 *436:A 43.5844 
*END

*D_NET *230 0.00177885
*CONN
*I *255:RESET_B I *D sg13g2_dfrbpq_1
*I *256:L_HI O *D sg13g2_tiehi
*CAP
1 *255:RESET_B 0.000212254
2 *256:L_HI 0.000328353
3 *230:10 0.000540607
4 *439:A2 *255:RESET_B 1.54008e-05
5 *439:A2 *230:10 1.54008e-05
6 *439:A1 *230:10 0
7 *472:A2 *230:10 0
8 *549:A *255:RESET_B 0.00024154
9 *577:A *255:RESET_B 0.000241425
10 *46:10 *230:10 0
11 *157:82 *230:10 0.00018387
*RES
1 *256:L_HI *230:10 43.3269 
2 *230:10 *255:RESET_B 42.3999 
*END

*D_NET *231 0.00296579
*CONN
*I *281:RESET_B I *D sg13g2_dfrbpq_1
*I *282:L_HI O *D sg13g2_tiehi
*CAP
1 *281:RESET_B 0.000290068
2 *282:L_HI 0.000579972
3 *231:8 0.00087004
4 *459:B1 *231:8 0
5 *550:A *231:8 0.000306081
6 *608:A *231:8 0
7 *55:12 *231:8 0
8 *86:8 *231:8 0.000111827
9 *121:37 *231:8 0.000144772
10 *155:10 *281:RESET_B 0.000663031
11 *179:24 *281:RESET_B 0
12 *207:39 *231:8 0
*RES
1 *282:L_HI *231:8 45.8866 
2 *231:8 *281:RESET_B 44.3054 
*END

*D_NET *232 0.000914067
*CONN
*I *253:RESET_B I *D sg13g2_dfrbpq_1
*I *254:L_HI O *D sg13g2_tiehi
*CAP
1 *253:RESET_B 0.000441578
2 *254:L_HI 0.000441578
3 *253:D *253:RESET_B 1.54556e-05
4 *464:A2 *253:RESET_B 0
5 *57:10 *253:RESET_B 1.54556e-05
6 *126:8 *253:RESET_B 0
7 *183:18 *253:RESET_B 0
*RES
1 *254:L_HI *253:RESET_B 44.477 
*END

*D_NET *233 0.00226794
*CONN
*I *519:RESET_B I *D sg13g2_dfrbpq_2
*I *520:L_HI O *D sg13g2_tiehi
*CAP
1 *519:RESET_B 0.000221001
2 *520:L_HI 0.000530094
3 *233:10 0.000751095
4 *107:12 *519:RESET_B 0.000371925
5 *157:27 *233:10 0.000393821
6 *161:31 *519:RESET_B 0
7 *161:31 *233:10 0
8 *207:10 *233:10 0
*RES
1 *520:L_HI *233:10 45.1809 
2 *233:10 *519:RESET_B 42.4823 
*END

*D_NET *234 0.00362951
*CONN
*I *455:A1 I *D sg13g2_a21o_1
*I *541:X O *D sg13g2_dlygate4sd3_1
*CAP
1 *455:A1 0
2 *541:X 0.000152378
3 *234:14 0.000896175
4 *234:8 0.00104855
5 *234:14 *243:12 0
6 *42:13 *234:14 0
7 *49:16 *234:14 0.00135122
8 *80:10 *234:14 0.000181192
9 *178:141 *234:8 0
10 *200:14 *234:8 0
*RES
1 *541:X *234:8 41.1845 
2 *234:8 *234:14 30.3103 
3 *234:14 *455:A1 20 
*END

*D_NET *235 0.000525873
*CONN
*I *269:D I *D sg13g2_dfrbpq_1
*I *552:X O *D sg13g2_dlygate4sd3_1
*CAP
1 *269:D 0.000149915
2 *552:X 0.000149915
3 *471:B *269:D 0
4 *513:A *269:D 0.000226042
*RES
1 *552:X *269:D 41.5089 
*END

*D_NET *236 0.00268202
*CONN
*I *444:A1 I *D sg13g2_a21o_1
*I *563:X O *D sg13g2_dlygate4sd3_1
*CAP
1 *444:A1 2.55395e-05
2 *563:X 0.000480199
3 *236:8 0.000505738
4 *293:RESET_B *236:8 0
5 *444:A2 *444:A1 4.77425e-05
6 *444:B1 *444:A1 4.78578e-05
7 *490:A0 *236:8 0.000340704
8 *65:12 *236:8 0.000340704
9 *83:8 *236:8 0.000659311
10 *99:47 *236:8 0
11 *178:133 *236:8 0
12 *180:18 *236:8 0.000234224
*RES
1 *563:X *236:8 46.7774 
2 *236:8 *444:A1 40.3193 
*END

*D_NET *237 0.00197542
*CONN
*I *468:A1 I *D sg13g2_a21o_1
*I *574:X O *D sg13g2_dlygate4sd3_1
*CAP
1 *468:A1 0.000209363
2 *574:X 0.000248162
3 *237:10 0.000457525
4 *441:B *468:A1 0
5 *442:A1 *237:10 0.000176018
6 *458:B *468:A1 8.00842e-05
7 *458:B *237:10 0
8 *468:A2 *468:A1 1.69409e-05
9 *468:B1 *468:A1 1.53311e-05
10 *489:A0 *237:10 7.58826e-05
11 *73:8 *237:10 0.000397323
12 *112:37 *468:A1 0
13 *121:37 *237:10 0
14 *155:24 *237:10 0
15 *178:45 *468:A1 1.53311e-05
16 *229:30 *237:10 7.50004e-05
17 *229:44 *468:A1 0.000208458
*RES
1 *574:X *237:10 43.2651 
2 *237:10 *468:A1 42.266 
*END

*D_NET *238 0.00207156
*CONN
*I *474:A1 I *D sg13g2_a21o_1
*I *583:X O *D sg13g2_dlygate4sd3_1
*CAP
1 *474:A1 9.71957e-05
2 *583:X 0.000471308
3 *238:12 0.000568503
4 *238:12 *249:8 0
5 *474:A2 *474:A1 1.70012e-05
6 *492:A1 *238:12 0.000614694
7 *98:8 *474:A1 1.54556e-05
8 *108:8 *238:12 0.000126984
9 *112:20 *238:12 0
10 *144:6 *474:A1 1.54556e-05
11 *144:10 *474:A1 0.000144958
12 *207:29 *238:12 0
13 *207:50 *238:12 0
14 *229:59 *474:A1 0
*RES
1 *583:X *238:12 45.9328 
2 *238:12 *474:A1 40.9682 
*END

*D_NET *239 9.45957e-05
*CONN
*I *287:D I *D sg13g2_dfrbpq_1
*I *584:X O *D sg13g2_dlygate4sd3_1
*CAP
1 *287:D 4.72978e-05
2 *584:X 4.72978e-05
*RES
1 *584:X *287:D 40.5974 
*END

*D_NET *240 0.00910681
*CONN
*I *454:C I *D sg13g2_nand4_1
*I *443:A I *D sg13g2_nand3_1
*I *452:A I *D sg13g2_nand3_1
*I *445:C I *D sg13g2_nand4_1
*I *540:X O *D sg13g2_buf_1
*CAP
1 *454:C 0.000392235
2 *443:A 0.00013647
3 *452:A 4.37077e-05
4 *445:C 0.000902964
5 *540:X 0.000711882
6 *240:31 0.00063869
7 *240:23 0.000889218
8 *240:10 0.00138038
9 *444:A2 *240:31 0.000112499
10 *444:B1 *240:31 0
11 *445:D *445:C 0
12 *455:B1 *445:C 4.68848e-05
13 *471:D *452:A 8.00842e-05
14 *534:A *240:31 0
15 *540:A *454:C 0
16 *49:8 *240:10 0
17 *49:8 *240:23 2.20966e-05
18 *53:8 *443:A 0.000235055
19 *53:8 *240:23 0.00039332
20 *65:12 *452:A 8.00842e-05
21 *80:22 *443:A 0.000112426
22 *94:6 *454:C 0
23 *106:10 *445:C 0
24 *107:12 *240:10 0
25 *107:16 *454:C 4.77702e-05
26 *107:25 *454:C 1.54285e-05
27 *112:50 *240:31 0
28 *157:27 *240:10 0
29 *157:33 *240:10 0.000342145
30 *157:50 *240:10 7.51285e-05
31 *157:50 *240:23 0.000408915
32 *163:121 *443:A 0
33 *163:121 *240:23 0
34 *174:10 *445:C 0.000759282
35 *196:14 *445:C 0.000566138
36 *196:39 *454:C 0.000532399
37 *196:39 *240:10 0
38 *196:70 *240:31 0.000181608
39 *229:14 *454:C 0
*RES
1 *540:X *240:10 43.3887 
2 *240:10 *445:C 49.1876 
3 *240:10 *240:23 2.6471 
4 *240:23 *240:31 45.5517 
5 *240:31 *452:A 40.5356 
6 *240:23 *443:A 41.8437 
7 *540:X *454:C 44.1612 
*END

*D_NET *241 0.000705833
*CONN
*I *457:A1 I *D sg13g2_a21o_1
*I *585:X O *D sg13g2_dlygate4sd3_1
*CAP
1 *457:A1 0.000106605
2 *585:X 0.00019036
3 *241:10 0.000296965
4 *251:D *457:A1 7.94462e-05
5 *457:A2 *457:A1 1.70012e-05
6 *457:B1 *457:A1 1.54556e-05
7 *462:A2 *457:A1 0
8 *462:A1 *457:A1 0
9 *462:A1 *241:10 0
10 *144:66 *241:10 0
11 *162:12 *241:10 0
12 *173:40 *241:10 0
*RES
1 *585:X *241:10 41.8746 
2 *241:10 *457:A1 40.9682 
*END

*D_NET *242 9.45957e-05
*CONN
*I *271:D I *D sg13g2_dfrbpq_1
*I *586:X O *D sg13g2_dlygate4sd3_1
*CAP
1 *271:D 4.72978e-05
2 *586:X 4.72978e-05
*RES
1 *586:X *271:D 40.5974 
*END

*D_NET *243 0.00490515
*CONN
*I *446:A1 I *D sg13g2_a21o_1
*I *587:X O *D sg13g2_dlygate4sd3_1
*CAP
1 *446:A1 0
2 *587:X 0
3 *243:12 0.000738751
4 *243:6 0.000738751
5 *491:A0 *243:12 0.000341205
6 *42:13 *243:12 0
7 *49:8 *243:12 0.000341119
8 *49:16 *243:12 0.00135122
9 *53:8 *243:12 0.0012986
10 *106:10 *243:12 4.77702e-05
11 *157:33 *243:12 4.77425e-05
12 *234:14 *243:12 0
*RES
1 *587:X *243:6 40 
2 *243:6 *243:12 31.5463 
3 *243:12 *446:A1 20 
*END

*D_NET *244 0.000728509
*CONN
*I *261:D I *D sg13g2_dfrbpq_1
*I *542:X O *D sg13g2_dlygate4sd3_1
*CAP
1 *261:D 0.000364254
2 *542:X 0.000364254
3 *485:A *261:D 0
4 *511:A *261:D 0
*RES
1 *542:X *261:D 43.4814 
*END

*D_NET *245 0.00256906
*CONN
*I *480:A1 I *D sg13g2_a21o_1
*I *543:X O *D sg13g2_dlygate4sd3_1
*CAP
1 *480:A1 2.13551e-05
2 *543:X 0.000737998
3 *245:12 0.000759353
4 *444:A2 *480:A1 0
5 *444:B1 *480:A1 3.1684e-05
6 *495:A1 *245:12 0
7 *41:13 *245:12 0
8 *107:109 *245:12 0.000287343
9 *116:14 *245:12 0
10 *116:25 *245:12 0
11 *178:141 *245:12 0.000209756
12 *180:24 *245:12 0
13 *196:70 *245:12 0.000521567
14 *200:8 *245:12 0
*RES
1 *543:X *245:12 49.2391 
2 *245:12 *480:A1 40.2112 
*END

*D_NET *246 0.000649746
*CONN
*I *293:D I *D sg13g2_dfrbpq_1
*I *544:X O *D sg13g2_dlygate4sd3_1
*CAP
1 *293:D 0.000204613
2 *544:X 0.000204613
3 *444:A2 *293:D 0
4 *65:12 *293:D 0.000240519
*RES
1 *544:X *293:D 41.9673 
*END

*D_NET *247 0.00147166
*CONN
*I *449:A1 I *D sg13g2_a21o_1
*I *545:X O *D sg13g2_dlygate4sd3_1
*CAP
1 *449:A1 0
2 *545:X 0.000270364
3 *247:8 0.000270364
4 *492:A0 *247:8 0
5 *492:S *247:8 0
6 *529:A *247:8 0.000930931
*RES
1 *545:X *247:8 44.3054 
2 *247:8 *449:A1 40 
*END

*D_NET *248 0.000288816
*CONN
*I *263:D I *D sg13g2_dfrbpq_1
*I *546:X O *D sg13g2_dlygate4sd3_1
*CAP
1 *263:D 0.000144408
2 *546:X 0.000144408
*RES
1 *546:X *263:D 41.5347 
*END

*D_NET *249 0.0016982
*CONN
*I *482:A1 I *D sg13g2_a21o_1
*I *547:X O *D sg13g2_dlygate4sd3_1
*CAP
1 *482:A1 2.5171e-05
2 *547:X 0.000684217
3 *249:8 0.000709388
4 *482:A2 *482:A1 4.77702e-05
5 *482:B1 *482:A1 4.79124e-05
6 *112:20 *249:8 0.000183737
7 *113:8 *249:8 0
8 *113:72 *249:8 0
9 *238:12 *249:8 0
*RES
1 *547:X *249:8 46.283 
2 *249:8 *482:A1 40.3193 
*END

*D_NET *250 0.00207215
*CONN
*I *472:A1 I *D sg13g2_a21o_1
*I *548:X O *D sg13g2_dlygate4sd3_1
*CAP
1 *472:A1 0.000361635
2 *548:X 0.00040782
3 *250:8 0.000769456
4 *472:A2 *472:A1 0.000533238
5 *572:A *472:A1 0
*RES
1 *548:X *250:8 43.5638 
2 *250:8 *472:A1 43.5638 
*END
